192
Lattice="25.522526 0.0 1.562803988602755e-15 -12.761262999849535 22.10315600030576 1.5628039947259891e-15 0.0 0.0 20.0" Properties=species:S:1:pos:R:3:node_type:I:1:site_index:I:1:importance:R:1:importance_std:R:1 pbc="T T T"
Mo       0.01276126       1.83456195       3.72000000        0        0       0.14704539       0.00940154
Mo      -1.58239661       4.59745645       3.72000000        0        1       0.07523108       0.00417266
Mo      -3.17755449       7.36035095       3.72000000        0        2       0.14247590       0.01213099
Mo      -4.77271236      10.12324545       3.72000000        0        3       0.16057441       0.02068301
Mo      -6.36787024      12.88613995       3.72000000        0        4       0.07646487       0.00024813
Mo      -7.96302811      15.64903445       3.72000000        0        5       0.10222277       0.00220902
Mo      -9.55818599      18.41192895       3.72000000        0        6       0.22681181       0.03066377
Mo     -11.15334386      21.17482345       3.72000000        0        7       0.29113832       0.04093465
Mo       3.20307701       1.83456195       3.72000000        0        8       0.59040296       0.01316415
Mo       1.60791914       4.59745645       3.72000000        0        9       0.43425560       0.02979323
Mo       0.01276126       7.36035095       3.72000000        0       10       0.42666316       0.04816404
Mo      -1.58239661      10.12324545       3.72000000        0       11       0.55169731       0.01895865
Mo      -3.17755449      12.88613995       3.72000000        0       12       0.44208661       0.04213092
Mo      -4.77271236      15.64903445       3.72000000        0       13       0.30822858       0.01696261
Mo      -6.36787024      18.41192895       3.72000000        0       14       0.13057092       0.05149923
Mo      -7.96302811      21.17482345       3.72000000        0       15       0.59458750       0.02071532
X        6.39339276       1.83456195       3.72000000        1       16       0.64762425       0.02758440
Mo       4.79823489       4.59745645       3.72000000        0       17       0.56828910       0.00934069
Mo       3.20307701       7.36035095       3.72000000        0       18       0.29074916       0.03665529
Mo       1.60791914      10.12324545       3.72000000        0       19       0.36380497       0.05931813
Mo       0.01276126      12.88613995       3.72000000        0       20       0.30992198       0.04725819
Mo      -1.58239661      15.64903445       3.72000000        0       21       0.46666932       0.03631073
Mo      -3.17755449      18.41192895       3.72000000        0       22       0.08938078       0.01105833
Mo      -4.77271236      21.17482345       3.72000000        0       23       0.63587993       0.01048547
Mo       9.58370851       1.83456195       3.72000000        0       24       0.58575219       0.00434765
Mo       7.98855064       4.59745645       3.72000000        0       25       0.56254154       0.00510168
Mo       6.39339276       7.36035095       3.72000000        0       26       0.22217889       0.06108014
Mo       4.79823489      10.12324545       3.72000000        0       27       0.32490119       0.07866663
Mo       3.20307701      12.88613995       3.72000000        0       28       0.38202941       0.08582217
Mo       1.60791914      15.64903445       3.72000000        0       29       0.54128647       0.01622771
Mo       0.01276126      18.41192895       3.72000000        0       30       0.30204529       0.06760136
Mo      -1.58239661      21.17482345       3.72000000        0       31       0.12478570       0.00420550
Mo      12.77402426       1.83456195       3.72000000        0       32       0.25920558       0.03224421
Mo      11.17886639       4.59745645       3.72000000        0       33       0.39279214       0.01128538
Mo       9.58370851       7.36035095       3.72000000        0       34       0.22373086       0.01735151
Mo       7.98855064      10.12324545       3.72000000        0       35       0.12106606       0.02621141
Mo       6.39339276      12.88613995       3.72000000        0       36       0.21230142       0.05818833
Mo       4.79823489      15.64903445       3.72000000        0       37       0.27635488       0.03992723
Mo       3.20307701      18.41192895       3.72000000        0       38       0.30051371       0.07184354
Mo       1.60791914      21.17482345       3.72000000        0       39       0.14785206       0.00929341
Mo      15.96434001       1.83456195       3.72000000        0       40       0.08722051       0.00477841
Mo      14.36918214       4.59745645       3.72000000        0       41       0.08172942       0.00487304
Mo      12.77402426       7.36035095       3.72000000        0       42       0.07952265       0.00372274
Mo      11.17886639      10.12324545       3.72000000        0       43       0.08094338       0.00038394
Mo       9.58370851      12.88613995       3.72000000        0       44       0.12778659       0.00551353
Mo       7.98855064      15.64903445       3.72000000        0       45       0.26448122       0.04544092
Mo       6.39339276      18.41192895       3.72000000        0       46       0.40745607       0.04172893
Mo       4.79823489      21.17482345       3.72000000        0       47       0.07410400       0.00055396
Mo      19.15465576       1.83456195       3.72000000        0       48       0.08704537       0.00347797
Mo      17.55949789       4.59745645       3.72000000        0       49       0.08502581       0.00274729
Mo      15.96434001       7.36035095       3.72000000        0       50       0.08244250       0.00113307
Mo      14.36918214      10.12324545       3.72000000        0       51       0.07903048       0.00146201
Mo      12.77402426      12.88613995       3.72000000        0       52       0.08826140       0.00273439
Mo      11.17886639      15.64903445       3.72000000        0       53       0.22257574       0.03272155
Mo       9.58370851      18.41192895       3.72000000        0       54       0.10299490       0.01475639
Mo       7.98855064      21.17482345       3.72000000        0       55       0.09972098       0.00544768
Mo      22.34497151       1.83456195       3.72000000        0       56       0.07622293       0.00327423
Mo      20.74981364       4.59745645       3.72000000        0       57       0.08346000       0.00282656
Mo      19.15465576       7.36035095       3.72000000        0       58       0.08144250       0.00032408
Mo      17.55949789      10.12324545       3.72000000        0       59       0.08091474       0.00135430
Mo      15.96434001      12.88613995       3.72000000        0       60       0.08577762       0.00058804
Mo      14.36918214      15.64903445       3.72000000        0       61       0.09596322       0.00144443
Mo      12.77402426      18.41192895       3.72000000        0       62       0.11769027       0.00796478
Mo      11.17886639      21.17482345       3.72000000        0       63       0.16453426       0.01894201
S        1.58239661       0.92833255       2.16000000        0       64       0.64837724       0.02897192
S       -0.01276126       3.69122705       2.16000000        0       65       0.56379730       0.00784000
S       -1.60791914       6.45412155       2.16000000        0       66       0.63907653       0.02331956
S       -3.20307701       9.21701605       2.16000000        0       67       0.55320710       0.10264076
S       -4.79823489      11.97991055       2.16000000        0       68       0.63197857       0.01126647
S       -6.39339276      14.74280505       2.16000000        0       69       0.58822191       0.00357291
S       -7.98855064      17.50569955       2.16000000        0       70       0.62283486       0.00700954
S       -9.58370851      20.26859405       2.16000000        0       71       0.63873428       0.03038997
S        4.77271236       0.92833255       2.16000000        0       72       0.65334529       0.01859824
S        3.17755449       3.69122705       2.16000000        0       73       0.63515824       0.00888381
S        1.58239661       6.45412155       2.16000000        0       74       0.64587814       0.00313083
S       -0.01276126       9.21701605       2.16000000        0       75       0.34900942       0.00877004
S       -1.60791914      11.97991055       2.16000000        0       76       0.31645191       0.02179816
S       -3.20307701      14.74280505       2.16000000        0       77       0.62153101       0.00467049
S       -4.79823489      17.50569955       2.16000000        0       78       0.62114519       0.00445199
S       -6.39339276      20.26859405       2.16000000        0       79       0.64249212       0.00506539
S        7.96302811       0.92833255       2.16000000        0       80       0.65193784       0.02383314
S        6.36787024       3.69122705       2.16000000        0       81       0.65462035       0.02360728
S        4.77271236       6.45412155       2.16000000        0       82       0.63157362       0.03931002
S        3.17755449       9.21701605       2.16000000        0       83       0.32279730       0.01880103
X        1.58239661      11.97991055       2.16000000        1       84       0.60421288       0.00415249
S       -0.01276126      14.74280505       2.16000000        0       85       0.34162822       0.01309217
S       -1.60791914      17.50569955       2.16000000        0       86       0.64662117       0.01596747
S       -3.20307701      20.26859405       2.16000000        0       87       0.30744997       0.02404734
S       11.15334386       0.92833255       2.16000000        0       88       0.63861299       0.01202496
S        9.55818599       3.69122705       2.16000000        0       89       0.61596203       0.02109916
S        7.96302811       6.45412155       2.16000000        0       90       0.64281887       0.01246382
S        6.36787024       9.21701605       2.16000000        0       91       0.57021540       0.08324797
S        4.77271236      11.97991055       2.16000000        0       92       0.30957898       0.01208838
S        3.17755449      14.74280505       2.16000000        0       93       0.35488865       0.00627385
S        1.58239661      17.50569955       2.16000000        0       94       0.55687433       0.10178271
S       -0.01276126      20.26859405       2.16000000        0       95       0.63964295       0.00937747
S       14.34365961       0.92833255       2.16000000        0       96       0.61014271       0.00916837
S       12.74850174       3.69122705       2.16000000        0       97       0.58823740       0.00053426
S       11.15334386       6.45412155       2.16000000        0       98       0.59343660       0.00839383
S        9.55818599       9.21701605       2.16000000        0       99       0.57645303       0.00303161
S        7.96302811      11.97991055       2.16000000        0      100       0.65072721       0.00254121
S        6.36787024      14.74280505       2.16000000        0      101       0.38995221       0.01250790
S        4.77271236      17.50569955       2.16000000        0      102       0.31393197       0.01489052
S        3.17755449      20.26859405       2.16000000        0      103       0.61946201       0.00647538
S       17.53397536       0.92833255       2.16000000        0      104       0.62653559       0.00516603
S       15.93881749       3.69122705       2.16000000        0      105       0.52785152       0.03535727
S       14.34365961       6.45412155       2.16000000        0      106       0.55868798       0.00583181
S       12.74850174       9.21701605       2.16000000        0      107       0.54554898       0.01344020
S       11.15334386      11.97991055       2.16000000        0      108       0.60856247       0.00154389
S        9.55818599      14.74280505       2.16000000        0      109       0.30777025       0.00996977
Se       7.96302811      17.50569955       2.16000000        1      110       0.37405249       0.00781341
S        6.36787024      20.26859405       2.16000000        0      111       0.31256604       0.03129129
S       20.72429111       0.92833255       2.16000000        0      112       0.62087244       0.01079401
S       19.12913324       3.69122705       2.16000000        0      113       0.56388396       0.00410370
S       17.53397536       6.45412155       2.16000000        0      114       0.54294902       0.01203428
S       15.93881749       9.21701605       2.16000000        0      115       0.54695421       0.01159677
S       14.34365961      11.97991055       2.16000000        0      116       0.54506493       0.02491353
S       12.74850174      14.74280505       2.16000000        0      117       0.62092072       0.00483819
S       11.15334386      17.50569955       2.16000000        0      118       0.32867286       0.01595484
S        9.55818599      20.26859405       2.16000000        0      119       0.30369890       0.00941875
S       23.91460686       0.92833255       2.16000000        0      120       0.64369446       0.01429992
S       22.31944899       3.69122705       2.16000000        0      121       0.57147151       0.00604673
S       20.72429111       6.45412155       2.16000000        0      122       0.55142522       0.02494119
S       19.12913324       9.21701605       2.16000000        0      123       0.54881787       0.02280102
S       17.53397536      11.97991055       2.16000000        0      124       0.54923844       0.01228374
S       15.93881749      14.74280505       2.16000000        0      125       0.52692246       0.02079224
S       14.34365961      17.50569955       2.16000000        0      126       0.61637163       0.00360689
S       12.74850174      20.26859405       2.16000000        0      127       0.63018423       0.00290913
S        1.58239661       0.92833255       5.28000000        0      128       0.61218077       0.01734817
S       -0.01276126       3.69122705       5.28000000        0      129       0.52966237       0.01075418
S       -1.60791914       6.45412155       5.28000000        0      130       0.49704266       0.07118334
S       -3.20307701       9.21701605       5.28000000        0      131       0.58580726       0.00536775
S       -4.79823489      11.97991055       5.28000000        0      132       0.54831666       0.00136958
S       -6.39339276      14.74280505       5.28000000        0      133       0.62146980       0.00615966
S       -7.98855064      17.50569955       5.28000000        0      134       0.62929851       0.00456090
S       -9.58370851      20.26859405       5.28000000        0      135       0.63307756       0.01579754
S        4.77271236       0.92833255       5.28000000        0      136       0.67116076       0.02374000
S        3.17755449       3.69122705       5.28000000        0      137       0.63776481       0.00786243
S        1.58239661       6.45412155       5.28000000        0      138       0.59566993       0.00560230
S       -0.01276126       9.21701605       5.28000000        0      139       0.64638203       0.01896403
S       -1.60791914      11.97991055       5.28000000        0      140       0.63763738       0.00996581
S       -3.20307701      14.74280505       5.28000000        0      141       0.61989611       0.00709638
S       -4.79823489      17.50569955       5.28000000        0      142       0.30712411       0.00603000
S       -6.39339276      20.26859405       5.28000000        0      143       0.29503056       0.02451297
S        7.96302811       0.92833255       5.28000000        0      144       0.65850753       0.03116785
S        6.36787024       3.69122705       5.28000000        0      145       0.64982343       0.01983803
S        4.77271236       6.45412155       5.28000000        0      146       0.62723655       0.04530398
S        3.17755449       9.21701605       5.28000000        0      147       0.67446995       0.00588534
S        1.58239661      11.97991055       5.28000000        0      148       0.45328867       0.11003241
S       -0.01276126      14.74280505       5.28000000        0      149       0.61663145       0.02517449
S       -1.60791914      17.50569955       5.28000000        0      150       0.31570435       0.04251168
Se      -3.20307701      20.26859405       5.28000000        1      151       0.62834024       0.02975189
S       11.15334386       0.92833255       5.28000000        0      152       0.29843777       0.01241220
S        9.55818599       3.69122705       5.28000000        0      153       0.62829286       0.00901782
S        7.96302811       6.45412155       5.28000000        0      154       0.63571954       0.00277056
S        6.36787024       9.21701605       5.28000000        0      155       0.57902026       0.01078471
S        4.77271236      11.97991055       5.28000000        0      156       0.66339904       0.01364248
S        3.17755449      14.74280505       5.28000000        0      157       0.64883572       0.00971344
S        1.58239661      17.50569955       5.28000000        0      158       0.62206745       0.00680073
S       -0.01276126      20.26859405       5.28000000        0      159       0.32079992       0.00888251
S       14.34365961       0.92833255       5.28000000        0      160       0.63228011       0.00156186
S       12.74850174       3.69122705       5.28000000        0      161       0.63822007       0.00643362
S       11.15334386       6.45412155       5.28000000        0      162       0.61192870       0.00628495
S        9.55818599       9.21701605       5.28000000        0      163       0.52989882       0.00585649
S        7.96302811      11.97991055       5.28000000        0      164       0.59309691       0.00477186
S        6.36787024      14.74280505       5.28000000        0      165       0.64626640       0.00836111
S        4.77271236      17.50569955       5.28000000        0      166       0.64732873       0.00533645
S        3.17755449      20.26859405       5.28000000        0      167       0.62174529       0.00645028
S       17.53397536       0.92833255       5.28000000        0      168       0.55599302       0.01045495
S       15.93881749       3.69122705       5.28000000        0      169       0.55012232       0.01111276
S       14.34365961       6.45412155       5.28000000        0      170       0.55057436       0.01419971
S       12.74850174       9.21701605       5.28000000        0      171       0.54697531       0.00853416
S       11.15334386      11.97991055       5.28000000        0      172       0.55305600       0.00526245
S        9.55818599      14.74280505       5.28000000        0      173       0.62171531       0.01219095
S        7.96302811      17.50569955       5.28000000        0      174       0.31331715       0.00948247
S        6.36787024      20.26859405       5.28000000        0      175       0.62147772       0.00675904
S       20.72429111       0.92833255       5.28000000        0      176       0.59748787       0.00305589
S       19.12913324       3.69122705       5.28000000        0      177       0.53712171       0.01311450
S       17.53397536       6.45412155       5.28000000        0      178       0.54584712       0.00573191
S       15.93881749       9.21701605       5.28000000        0      179       0.54887527       0.00930612
S       14.34365961      11.97991055       5.28000000        0      180       0.54178303       0.00933522
S       12.74850174      14.74280505       5.28000000        0      181       0.56928915       0.00331630
S       11.15334386      17.50569955       5.28000000        0      182       0.63416314       0.00474480
S        9.55818599      20.26859405       5.28000000        0      183       0.62919766       0.00572014
S       23.91460686       0.92833255       5.28000000        0      184       0.57694483       0.00427506
S       22.31944899       3.69122705       5.28000000        0      185       0.54163533       0.00733611
S       20.72429111       6.45412155       5.28000000        0      186       0.52510619       0.00720255
S       19.12913324       9.21701605       5.28000000        0      187       0.53097266       0.01124827
S       17.53397536      11.97991055       5.28000000        0      188       0.55031818       0.00875670
S       15.93881749      14.74280505       5.28000000        0      189       0.55725724       0.00418153
S       14.34365961      17.50569955       5.28000000        0      190       0.56885403       0.02238111
S       12.74850174      20.26859405       5.28000000        0      191       0.61648977       0.00799130
