192
Lattice="25.522526 0.0 1.562803988602755e-15 -12.761262999849535 22.10315600030576 1.5628039947259891e-15 0.0 0.0 20.0" Properties=species:S:1:pos:R:3:node_type:I:1:site_index:I:1:importance:R:1:importance_std:R:1 pbc="T T T"
Mo       0.01276126       1.83456195       3.72000000        0        0       0.08029205       0.00421876
Mo      -1.58239661       4.59745645       3.72000000        0        1       0.07318854       0.00389174
Mo      -3.17755449       7.36035095       3.72000000        0        2       0.07259631       0.00244791
Mo      -4.77271236      10.12324545       3.72000000        0        3       0.07962592       0.00320543
Mo      -6.36787024      12.88613995       3.72000000        0        4       0.07682270       0.00070297
Mo      -7.96302811      15.64903445       3.72000000        0        5       0.07688215       0.00317263
Mo      -9.55818599      18.41192895       3.72000000        0        6       0.07853787       0.00700773
Mo     -11.15334386      21.17482345       3.72000000        0        7       0.09885288       0.00255607
Mo       3.20307701       1.83456195       3.72000000        0        8       0.07721911       0.00434419
Mo       1.60791914       4.59745645       3.72000000        0        9       0.08760357       0.00172128
Mo       0.01276126       7.36035095       3.72000000        0       10       0.07834676       0.00178792
Mo      -1.58239661      10.12324545       3.72000000        0       11       0.07547659       0.00242076
Mo      -3.17755449      12.88613995       3.72000000        0       12       0.07413067       0.00206065
Mo      -4.77271236      15.64903445       3.72000000        0       13       0.08010274       0.00283078
Mo      -6.36787024      18.41192895       3.72000000        0       14       0.07886233       0.00375481
Mo      -7.96302811      21.17482345       3.72000000        0       15       0.07767228       0.00481136
X        6.39339276       1.83456195       3.72000000        1       16       0.24551494       0.02646314
Mo       4.79823489       4.59745645       3.72000000        0       17       0.07537634       0.00637200
Mo       3.20307701       7.36035095       3.72000000        0       18       0.08560469       0.00524702
Mo       1.60791914      10.12324545       3.72000000        0       19       0.07737962       0.00321259
Mo       0.01276126      12.88613995       3.72000000        0       20       0.07817161       0.00632392
Mo      -1.58239661      15.64903445       3.72000000        0       21       0.07920972       0.00314884
Mo      -3.17755449      18.41192895       3.72000000        0       22       0.08353874       0.00534180
Mo      -4.77271236      21.17482345       3.72000000        0       23       0.08084302       0.00133541
Mo       9.58370851       1.83456195       3.72000000        0       24       0.07957170       0.00240955
Mo       7.98855064       4.59745645       3.72000000        0       25       0.07727700       0.00297439
Mo       6.39339276       7.36035095       3.72000000        0       26       0.09769433       0.00362646
Mo       4.79823489      10.12324545       3.72000000        0       27       0.08249002       0.00381245
Mo       3.20307701      12.88613995       3.72000000        0       28       0.07600754       0.00449104
Mo       1.60791914      15.64903445       3.72000000        0       29       0.07813100       0.00456419
Mo       0.01276126      18.41192895       3.72000000        0       30       0.08332835       0.00057786
Mo      -1.58239661      21.17482345       3.72000000        0       31       0.07770532       0.00294125
Mo      12.77402426       1.83456195       3.72000000        0       32       0.08154465       0.00110467
Mo      11.17886639       4.59745645       3.72000000        0       33       0.08366231       0.00038188
Mo       9.58370851       7.36035095       3.72000000        0       34       0.07689121       0.00159183
Mo       7.98855064      10.12324545       3.72000000        0       35       0.08561254       0.00269547
Mo       6.39339276      12.88613995       3.72000000        0       36       0.07438353       0.00066210
Mo       4.79823489      15.64903445       3.72000000        0       37       0.07662556       0.00148327
Mo       3.20307701      18.41192895       3.72000000        0       38       0.07368633       0.00344261
Mo       1.60791914      21.17482345       3.72000000        0       39       0.08251691       0.00455857
Mo      15.96434001       1.83456195       3.72000000        0       40       0.06972090       0.00458884
Mo      14.36918214       4.59745645       3.72000000        0       41       0.08056540       0.00378666
Mo      12.77402426       7.36035095       3.72000000        0       42       0.07806931       0.00135249
Mo      11.17886639      10.12324545       3.72000000        0       43       0.07570464       0.00287349
Mo       9.58370851      12.88613995       3.72000000        0       44       0.07242548       0.00138293
Mo       7.98855064      15.64903445       3.72000000        0       45       0.07508583       0.00238556
Mo       6.39339276      18.41192895       3.72000000        0       46       0.07811027       0.00294968
Mo       4.79823489      21.17482345       3.72000000        0       47       0.07658272       0.00298953
Mo      19.15465576       1.83456195       3.72000000        0       48       0.07688319       0.00012138
Mo      17.55949789       4.59745645       3.72000000        0       49       0.08224763       0.00440685
Mo      15.96434001       7.36035095       3.72000000        0       50       0.07939932       0.00217391
Mo      14.36918214      10.12324545       3.72000000        0       51       0.07301114       0.00204970
Mo      12.77402426      12.88613995       3.72000000        0       52       0.07599328       0.00380326
Mo      11.17886639      15.64903445       3.72000000        0       53       0.07936133       0.00068535
Mo       9.58370851      18.41192895       3.72000000        0       54       0.07688466       0.00137762
Mo       7.98855064      21.17482345       3.72000000        0       55       0.07788070       0.00113301
Mo      22.34497151       1.83456195       3.72000000        0       56       0.07984951       0.00426908
Mo      20.74981364       4.59745645       3.72000000        0       57       0.07844771       0.00468035
Mo      19.15465576       7.36035095       3.72000000        0       58       0.07624004       0.00140995
Mo      17.55949789      10.12324545       3.72000000        0       59       0.07695573       0.00172553
Mo      15.96434001      12.88613995       3.72000000        0       60       0.08173447       0.00137390
Mo      14.36918214      15.64903445       3.72000000        0       61       0.07810857       0.00247597
Mo      12.77402426      18.41192895       3.72000000        0       62       0.08211508       0.00105464
Mo      11.17886639      21.17482345       3.72000000        0       63       0.08317726       0.00193419
S        1.58239661       0.92833255       2.16000000        0       64       0.08219092       0.00555106
S       -0.01276126       3.69122705       2.16000000        0       65       0.07632297       0.00418606
S       -1.60791914       6.45412155       2.16000000        0       66       0.07888404       0.00559529
S       -3.20307701       9.21701605       2.16000000        0       67       0.07916325       0.00366690
S       -4.79823489      11.97991055       2.16000000        0       68       0.07940204       0.00444169
S       -6.39339276      14.74280505       2.16000000        0       69       0.07421441       0.00473461
S       -7.98855064      17.50569955       2.16000000        0       70       0.07890376       0.00282218
S       -9.58370851      20.26859405       2.16000000        0       71       0.07938012       0.00688684
S        4.77271236       0.92833255       2.16000000        0       72       0.07597139       0.00360315
S        3.17755449       3.69122705       2.16000000        0       73       0.07853233       0.00331864
S        1.58239661       6.45412155       2.16000000        0       74       0.08661601       0.00164220
S       -0.01276126       9.21701605       2.16000000        0       75       0.07945656       0.00277632
S       -1.60791914      11.97991055       2.16000000        0       76       0.07122479       0.00475944
S       -3.20307701      14.74280505       2.16000000        0       77       0.07542098       0.00260326
S       -4.79823489      17.50569955       2.16000000        0       78       0.07397410       0.00102455
S       -6.39339276      20.26859405       2.16000000        0       79       0.07842831       0.00230871
S        7.96302811       0.92833255       2.16000000        0       80       0.07709038       0.00509512
S        6.36787024       3.69122705       2.16000000        0       81       0.07819843       0.00408853
S        4.77271236       6.45412155       2.16000000        0       82       0.07908124       0.00649477
S        3.17755449       9.21701605       2.16000000        0       83       0.07677022       0.00415917
X        1.58239661      11.97991055       2.16000000        1       84       0.07325823       0.00179297
S       -0.01276126      14.74280505       2.16000000        0       85       0.07507039       0.00250417
S       -1.60791914      17.50569955       2.16000000        0       86       0.08159264       0.00603623
S       -3.20307701      20.26859405       2.16000000        0       87       0.07483676       0.00535332
S       11.15334386       0.92833255       2.16000000        0       88       0.07768906       0.00505624
S        9.55818599       3.69122705       2.16000000        0       89       0.07219145       0.00654358
S        7.96302811       6.45412155       2.16000000        0       90       0.08062038       0.00456908
S        6.36787024       9.21701605       2.16000000        0       91       0.07767285       0.00496474
S        4.77271236      11.97991055       2.16000000        0       92       0.07321034       0.00604554
S        3.17755449      14.74280505       2.16000000        0       93       0.07973542       0.00187790
S        1.58239661      17.50569955       2.16000000        0       94       0.07751253       0.00553897
S       -0.01276126      20.26859405       2.16000000        0       95       0.08141518       0.00484356
S       14.34365961       0.92833255       2.16000000        0       96       0.07555535       0.00406846
S       12.74850174       3.69122705       2.16000000        0       97       0.08024596       0.00439257
S       11.15334386       6.45412155       2.16000000        0       98       0.07759735       0.00350920
S        9.55818599       9.21701605       2.16000000        0       99       0.07666715       0.00641933
S        7.96302811      11.97991055       2.16000000        0      100       0.08373910       0.00108935
S        6.36787024      14.74280505       2.16000000        0      101       0.07643706       0.00198327
S        4.77271236      17.50569955       2.16000000        0      102       0.07911372       0.00237983
S        3.17755449      20.26859405       2.16000000        0      103       0.07352684       0.00210957
S       17.53397536       0.92833255       2.16000000        0      104       0.07812765       0.00230033
S       15.93881749       3.69122705       2.16000000        0      105       0.07991125       0.00561857
S       14.34365961       6.45412155       2.16000000        0      106       0.07981550       0.00355616
S       12.74850174       9.21701605       2.16000000        0      107       0.07845625       0.00232062
S       11.15334386      11.97991055       2.16000000        0      108       0.07161111       0.00191901
S        9.55818599      14.74280505       2.16000000        0      109       0.07721943       0.00247777
Se       7.96302811      17.50569955       2.16000000        1      110       0.07750093       0.00191351
S        6.36787024      20.26859405       2.16000000        0      111       0.07762945       0.00406921
S       20.72429111       0.92833255       2.16000000        0      112       0.07380245       0.00425478
S       19.12913324       3.69122705       2.16000000        0      113       0.07355409       0.00298118
S       17.53397536       6.45412155       2.16000000        0      114       0.07928424       0.00220704
S       15.93881749       9.21701605       2.16000000        0      115       0.08023468       0.00147613
S       14.34365961      11.97991055       2.16000000        0      116       0.07842884       0.00495825
S       12.74850174      14.74280505       2.16000000        0      117       0.07551738       0.00241523
S       11.15334386      17.50569955       2.16000000        0      118       0.08198128       0.00415867
S        9.55818599      20.26859405       2.16000000        0      119       0.07881588       0.00441007
S       23.91460686       0.92833255       2.16000000        0      120       0.08316442       0.00521130
S       22.31944899       3.69122705       2.16000000        0      121       0.07857627       0.00165884
S       20.72429111       6.45412155       2.16000000        0      122       0.07704677       0.00246984
S       19.12913324       9.21701605       2.16000000        0      123       0.07514221       0.00320605
S       17.53397536      11.97991055       2.16000000        0      124       0.07541802       0.00294084
S       15.93881749      14.74280505       2.16000000        0      125       0.08216631       0.00326918
S       14.34365961      17.50569955       2.16000000        0      126       0.07447857       0.00225040
S       12.74850174      20.26859405       2.16000000        0      127       0.07973278       0.00216350
S        1.58239661       0.92833255       5.28000000        0      128       0.07440823       0.00388049
S       -0.01276126       3.69122705       5.28000000        0      129       0.08448842       0.00146208
S       -1.60791914       6.45412155       5.28000000        0      130       0.08121956       0.00682140
S       -3.20307701       9.21701605       5.28000000        0      131       0.07922668       0.00110648
S       -4.79823489      11.97991055       5.28000000        0      132       0.06894996       0.00358654
S       -6.39339276      14.74280505       5.28000000        0      133       0.07397336       0.00303211
S       -7.98855064      17.50569955       5.28000000        0      134       0.07763790       0.00224117
S       -9.58370851      20.26859405       5.28000000        0      135       0.07766277       0.00458066
S        4.77271236       0.92833255       5.28000000        0      136       0.07910687       0.00441326
S        3.17755449       3.69122705       5.28000000        0      137       0.07886221       0.00195731
S        1.58239661       6.45412155       5.28000000        0      138       0.08103810       0.00129144
S       -0.01276126       9.21701605       5.28000000        0      139       0.08153956       0.00711458
S       -1.60791914      11.97991055       5.28000000        0      140       0.07802341       0.00120622
S       -3.20307701      14.74280505       5.28000000        0      141       0.07797405       0.00381714
S       -4.79823489      17.50569955       5.28000000        0      142       0.07903008       0.00245041
S       -6.39339276      20.26859405       5.28000000        0      143       0.07715600       0.00330512
S        7.96302811       0.92833255       5.28000000        0      144       0.07668047       0.00711838
S        6.36787024       3.69122705       5.28000000        0      145       0.07764218       0.00402027
S        4.77271236       6.45412155       5.28000000        0      146       0.07627254       0.00710089
S        3.17755449       9.21701605       5.28000000        0      147       0.07827886       0.00152174
S        1.58239661      11.97991055       5.28000000        0      148       0.07429671       0.00060894
S       -0.01276126      14.74280505       5.28000000        0      149       0.07346614       0.00663999
S       -1.60791914      17.50569955       5.28000000        0      150       0.07830559       0.00681974
Se      -3.20307701      20.26859405       5.28000000        1      151       0.15889004       0.00860703
S       11.15334386       0.92833255       5.28000000        0      152       0.07717084       0.00177627
S        9.55818599       3.69122705       5.28000000        0      153       0.07505853       0.00361080
S        7.96302811       6.45412155       5.28000000        0      154       0.07472864       0.00160779
S        6.36787024       9.21701605       5.28000000        0      155       0.07649103       0.00257204
S        4.77271236      11.97991055       5.28000000        0      156       0.07624073       0.00368399
S        3.17755449      14.74280505       5.28000000        0      157       0.07986993       0.00342987
S        1.58239661      17.50569955       5.28000000        0      158       0.07450643       0.00401101
S       -0.01276126      20.26859405       5.28000000        0      159       0.08122753       0.00235035
S       14.34365961       0.92833255       5.28000000        0      160       0.08085348       0.00080804
S       12.74850174       3.69122705       5.28000000        0      161       0.07755492       0.00335934
S       11.15334386       6.45412155       5.28000000        0      162       0.07943992       0.00168924
S        9.55818599       9.21701605       5.28000000        0      163       0.07709315       0.00621579
S        7.96302811      11.97991055       5.28000000        0      164       0.07333217       0.00109328
S        6.36787024      14.74280505       5.28000000        0      165       0.07925380       0.00334883
S        4.77271236      17.50569955       5.28000000        0      166       0.08137137       0.00232697
S        3.17755449      20.26859405       5.28000000        0      167       0.07876220       0.00380880
S       17.53397536       0.92833255       5.28000000        0      168       0.06934505       0.00305705
S       15.93881749       3.69122705       5.28000000        0      169       0.08115444       0.00265114
S       14.34365961       6.45412155       5.28000000        0      170       0.07387238       0.00532224
S       12.74850174       9.21701605       5.28000000        0      171       0.07520718       0.00341754
S       11.15334386      11.97991055       5.28000000        0      172       0.07456521       0.00491020
S        9.55818599      14.74280505       5.28000000        0      173       0.07392343       0.00394055
S        7.96302811      17.50569955       5.28000000        0      174       0.08095274       0.00172306
S        6.36787024      20.26859405       5.28000000        0      175       0.07378777       0.00275078
S       20.72429111       0.92833255       5.28000000        0      176       0.07419642       0.00327205
S       19.12913324       3.69122705       5.28000000        0      177       0.08038983       0.00142633
S       17.53397536       6.45412155       5.28000000        0      178       0.07884409       0.00351420
S       15.93881749       9.21701605       5.28000000        0      179       0.07229952       0.00197515
S       14.34365961      11.97991055       5.28000000        0      180       0.07664993       0.00138194
S       12.74850174      14.74280505       5.28000000        0      181       0.07916605       0.00232683
S       11.15334386      17.50569955       5.28000000        0      182       0.07988819       0.00226389
S        9.55818599      20.26859405       5.28000000        0      183       0.07610223       0.00242937
S       23.91460686       0.92833255       5.28000000        0      184       0.07736263       0.00388763
S       22.31944899       3.69122705       5.28000000        0      185       0.07950018       0.00021099
S       20.72429111       6.45412155       5.28000000        0      186       0.07426033       0.00512090
S       19.12913324       9.21701605       5.28000000        0      187       0.07797828       0.00234638
S       17.53397536      11.97991055       5.28000000        0      188       0.07802281       0.00146570
S       15.93881749      14.74280505       5.28000000        0      189       0.07910634       0.00269456
S       14.34365961      17.50569955       5.28000000        0      190       0.08041164       0.00490245
S       12.74850174      20.26859405       5.28000000        0      191       0.07665427       0.00371374
