192
Lattice="25.522526 0.0 1.562803988602755e-15 -12.761262999849535 22.10315600030576 1.5628039947259891e-15 0.0 0.0 20.0" Properties=species:S:1:pos:R:3:node_type:I:1:site_index:I:1:importance:R:1:importance_std:R:1 pbc="T T T"
Mo       0.01276126       1.83456195       3.72000000        0        0       0.07658837       0.00460174
Mo      -1.58239661       4.59745645       3.72000000        0        1       0.07194355       0.00349444
Mo      -3.17755449       7.36035095       3.72000000        0        2       0.07271957       0.00264831
Mo      -4.77271236      10.12324545       3.72000000        0        3       0.08006891       0.00229462
Mo      -6.36787024      12.88613995       3.72000000        0        4       0.07476739       0.00088002
Mo      -7.96302811      15.64903445       3.72000000        0        5       0.07440302       0.00346530
Mo      -9.55818599      18.41192895       3.72000000        0        6       0.07385750       0.00767219
Mo     -11.15334386      21.17482345       3.72000000        0        7       0.27518985       0.02494915
Mo       3.20307701       1.83456195       3.72000000        0        8       0.09682181       0.01222322
Mo       1.60791914       4.59745645       3.72000000        0        9       0.09220389       0.00095657
Mo       0.01276126       7.36035095       3.72000000        0       10       0.06415898       0.00165838
Mo      -1.58239661      10.12324545       3.72000000        0       11       0.09462088       0.00799433
Mo      -3.17755449      12.88613995       3.72000000        0       12       0.06958494       0.00132198
Mo      -4.77271236      15.64903445       3.72000000        0       13       0.07859912       0.00307284
Mo      -6.36787024      18.41192895       3.72000000        0       14       0.12167314       0.00618397
Mo      -7.96302811      21.17482345       3.72000000        0       15       0.09262425       0.00441451
X        6.39339276       1.83456195       3.72000000        1       16       0.11475285       0.01061130
Mo       4.79823489       4.59745645       3.72000000        0       17       0.09171623       0.00974054
Mo       3.20307701       7.36035095       3.72000000        0       18       0.06575144       0.00237996
Mo       1.60791914      10.12324545       3.72000000        0       19       0.09560158       0.00479599
Mo       0.01276126      12.88613995       3.72000000        0       20       0.10303041       0.00927769
Mo      -1.58239661      15.64903445       3.72000000        0       21       0.07372811       0.00218944
Mo      -3.17755449      18.41192895       3.72000000        0       22       0.08096779       0.00560127
Mo      -4.77271236      21.17482345       3.72000000        0       23       0.13804384       0.00615148
Mo       9.58370851       1.83456195       3.72000000        0       24       0.08912396       0.00402411
Mo       7.98855064       4.59745645       3.72000000        0       25       0.09039145       0.00354327
Mo       6.39339276       7.36035095       3.72000000        0       26       0.27932808       0.02171019
Mo       4.79823489      10.12324545       3.72000000        0       27       0.07691417       0.00351808
Mo       3.20307701      12.88613995       3.72000000        0       28       0.08104143       0.00470002
Mo       1.60791914      15.64903445       3.72000000        0       29       0.16180094       0.02592232
Mo       0.01276126      18.41192895       3.72000000        0       30       0.08404478       0.00092082
Mo      -1.58239661      21.17482345       3.72000000        0       31       0.36681542       0.03641868
Mo      12.77402426       1.83456195       3.72000000        0       32       0.07741601       0.00152931
Mo      11.17886639       4.59745645       3.72000000        0       33       0.08162357       0.00163004
Mo       9.58370851       7.36035095       3.72000000        0       34       0.07416769       0.00147471
Mo       7.98855064      10.12324545       3.72000000        0       35       0.08376052       0.00337553
Mo       6.39339276      12.88613995       3.72000000        0       36       0.06418363       0.00254259
Mo       4.79823489      15.64903445       3.72000000        0       37       0.05473655       0.00085597
Mo       3.20307701      18.41192895       3.72000000        0       38       0.07958876       0.00505494
Mo       1.60791914      21.17482345       3.72000000        0       39       0.07853846       0.00479920
Mo      15.96434001       1.83456195       3.72000000        0       40       0.06747946       0.00525848
Mo      14.36918214       4.59745645       3.72000000        0       41       0.07747627       0.00421265
Mo      12.77402426       7.36035095       3.72000000        0       42       0.07449029       0.00208040
Mo      11.17886639      10.12324545       3.72000000        0       43       0.07310265       0.00373236
Mo       9.58370851      12.88613995       3.72000000        0       44       0.07346412       0.00117526
Mo       7.98855064      15.64903445       3.72000000        0       45       0.11461023       0.02021836
Mo       6.39339276      18.41192895       3.72000000        0       46       0.09419245       0.01296504
Mo       4.79823489      21.17482345       3.72000000        0       47       0.07600041       0.00375981
Mo      19.15465576       1.83456195       3.72000000        0       48       0.07468814       0.00052299
Mo      17.55949789       4.59745645       3.72000000        0       49       0.07971993       0.00456692
Mo      15.96434001       7.36035095       3.72000000        0       50       0.07691172       0.00235083
Mo      14.36918214      10.12324545       3.72000000        0       51       0.06976578       0.00213811
Mo      12.77402426      12.88613995       3.72000000        0       52       0.07300023       0.00442376
Mo      11.17886639      15.64903445       3.72000000        0       53       0.08283714       0.00084381
Mo       9.58370851      18.41192895       3.72000000        0       54       0.09259098       0.00502155
Mo       7.98855064      21.17482345       3.72000000        0       55       0.08682850       0.00364516
Mo      22.34497151       1.83456195       3.72000000        0       56       0.07735670       0.00420427
Mo      20.74981364       4.59745645       3.72000000        0       57       0.07572334       0.00500986
Mo      19.15465576       7.36035095       3.72000000        0       58       0.07406681       0.00158796
Mo      17.55949789      10.12324545       3.72000000        0       59       0.07529739       0.00207296
Mo      15.96434001      12.88613995       3.72000000        0       60       0.07984348       0.00136564
Mo      14.36918214      15.64903445       3.72000000        0       61       0.07767817       0.00281946
Mo      12.77402426      18.41192895       3.72000000        0       62       0.08245720       0.00139328
Mo      11.17886639      21.17482345       3.72000000        0       63       0.08146161       0.00224220
S        1.58239661       0.92833255       2.16000000        0       64       0.23584759       0.00498145
S       -0.01276126       3.69122705       2.16000000        0       65       0.10915936       0.03492426
S       -1.60791914       6.45412155       2.16000000        0       66       0.14474037       0.04248513
S       -3.20307701       9.21701605       2.16000000        0       67       0.13223702       0.02181801
S       -4.79823489      11.97991055       2.16000000        0       68       0.12793775       0.00364655
S       -6.39339276      14.74280505       2.16000000        0       69       0.15272404       0.05894397
S       -7.98855064      17.50569955       2.16000000        0       70       0.20013535       0.01638377
S       -9.58370851      20.26859405       2.16000000        0       71       0.23254615       0.00225848
S        4.77271236       0.92833255       2.16000000        0       72       0.07615282       0.00340826
S        3.17755449       3.69122705       2.16000000        0       73       0.20678647       0.04483527
S        1.58239661       6.45412155       2.16000000        0       74       0.09496031       0.02415494
S       -0.01276126       9.21701605       2.16000000        0       75       0.08081377       0.00346098
S       -1.60791914      11.97991055       2.16000000        0       76       0.07239457       0.00529081
S       -3.20307701      14.74280505       2.16000000        0       77       0.11479568       0.02092822
S       -4.79823489      17.50569955       2.16000000        0       78       0.10654924       0.00603880
S       -6.39339276      20.26859405       2.16000000        0       79       0.25930455       0.00630565
S        7.96302811       0.92833255       2.16000000        0       80       0.07768420       0.00535465
S        6.36787024       3.69122705       2.16000000        0       81       0.08146347       0.00398651
S        4.77271236       6.45412155       2.16000000        0       82       0.16604771       0.04104220
S        3.17755449       9.21701605       2.16000000        0       83       0.07938506       0.00424649
X        1.58239661      11.97991055       2.16000000        1       84       0.10836238       0.00621535
S       -0.01276126      14.74280505       2.16000000        0       85       0.07632385       0.00246828
S       -1.60791914      17.50569955       2.16000000        0       86       0.17126168       0.03479849
S       -3.20307701      20.26859405       2.16000000        0       87       0.07258960       0.00494559
S       11.15334386       0.92833255       2.16000000        0       88       0.23475508       0.01174514
S        9.55818599       3.69122705       2.16000000        0       89       0.24306262       0.01458303
S        7.96302811       6.45412155       2.16000000        0       90       0.15329884       0.04636228
S        6.36787024       9.21701605       2.16000000        0       91       0.11497331       0.01884117
S        4.77271236      11.97991055       2.16000000        0       92       0.08018178       0.00425037
S        3.17755449      14.74280505       2.16000000        0       93       0.08256600       0.00191063
S        1.58239661      17.50569955       2.16000000        0       94       0.12469116       0.03266470
S       -0.01276126      20.26859405       2.16000000        0       95       0.13452238       0.03983502
S       14.34365961       0.92833255       2.16000000        0       96       0.13407366       0.05836631
S       12.74850174       3.69122705       2.16000000        0       97       0.14909492       0.06449056
S       11.15334386       6.45412155       2.16000000        0       98       0.15706800       0.02861908
S        9.55818599       9.21701605       2.16000000        0       99       0.10834048       0.02524379
S        7.96302811      11.97991055       2.16000000        0      100       0.16888864       0.02054992
S        6.36787024      14.74280505       2.16000000        0      101       0.09227677       0.00527330
S        4.77271236      17.50569955       2.16000000        0      102       0.07714918       0.00198765
S        3.17755449      20.26859405       2.16000000        0      103       0.23361731       0.02196638
S       17.53397536       0.92833255       2.16000000        0      104       0.16389170       0.03951396
S       15.93881749       3.69122705       2.16000000        0      105       0.19583656       0.05143981
S       14.34365961       6.45412155       2.16000000        0      106       0.23039572       0.00284450
S       12.74850174       9.21701605       2.16000000        0      107       0.22655444       0.00042902
S       11.15334386      11.97991055       2.16000000        0      108       0.20960705       0.00931371
S        9.55818599      14.74280505       2.16000000        0      109       0.07541118       0.00246184
Se       7.96302811      17.50569955       2.16000000        1      110       0.06405609       0.00571761
S        6.36787024      20.26859405       2.16000000        0      111       0.07490381       0.00446061
S       20.72429111       0.92833255       2.16000000        0      112       0.23458111       0.00479912
S       19.12913324       3.69122705       2.16000000        0      113       0.11281959       0.04620865
S       17.53397536       6.45412155       2.16000000        0      114       0.22236703       0.00376694
S       15.93881749       9.21701605       2.16000000        0      115       0.21144576       0.01546911
S       14.34365961      11.97991055       2.16000000        0      116       0.13659312       0.02351649
S       12.74850174      14.74280505       2.16000000        0      117       0.21929377       0.00309908
S       11.15334386      17.50569955       2.16000000        0      118       0.07974713       0.00485027
S        9.55818599      20.26859405       2.16000000        0      119       0.07584064       0.00484810
S       23.91460686       0.92833255       2.16000000        0      120       0.13915835       0.04406276
S       22.31944899       3.69122705       2.16000000        0      121       0.20282467       0.02287159
S       20.72429111       6.45412155       2.16000000        0      122       0.13514687       0.01789490
S       19.12913324       9.21701605       2.16000000        0      123       0.14121421       0.03756189
S       17.53397536      11.97991055       2.16000000        0      124       0.21607763       0.01083156
S       15.93881749      14.74280505       2.16000000        0      125       0.19638972       0.04392085
S       14.34365961      17.50569955       2.16000000        0      126       0.11597928       0.03335077
S       12.74850174      20.26859405       2.16000000        0      127       0.21294914       0.00872457
S        1.58239661       0.92833255       5.28000000        0      128       0.21551967       0.01779966
S       -0.01276126       3.69122705       5.28000000        0      129       0.12904507       0.02565003
S       -1.60791914       6.45412155       5.28000000        0      130       0.15049203       0.04847046
S       -3.20307701       9.21701605       5.28000000        0      131       0.11209542       0.02042537
S       -4.79823489      11.97991055       5.28000000        0      132       0.10038070       0.00944767
S       -6.39339276      14.74280505       5.28000000        0      133       0.19375205       0.00853221
S       -7.98855064      17.50569955       5.28000000        0      134       0.22583532       0.00387864
S       -9.58370851      20.26859405       5.28000000        0      135       0.22478054       0.00596518
S        4.77271236       0.92833255       5.28000000        0      136       0.07986038       0.00449817
S        3.17755449       3.69122705       5.28000000        0      137       0.22471458       0.03404973
S        1.58239661       6.45412155       5.28000000        0      138       0.09078500       0.00673256
S       -0.01276126       9.21701605       5.28000000        0      139       0.27674997       0.01719516
S       -1.60791914      11.97991055       5.28000000        0      140       0.25808996       0.02224245
S       -3.20307701      14.74280505       5.28000000        0      141       0.19672775       0.01364428
S       -4.79823489      17.50569955       5.28000000        0      142       0.07681698       0.00233147
S       -6.39339276      20.26859405       5.28000000        0      143       0.08138906       0.00324074
S        7.96302811       0.92833255       5.28000000        0      144       0.07198220       0.00556847
S        6.36787024       3.69122705       5.28000000        0      145       0.07970684       0.00391446
S        4.77271236       6.45412155       5.28000000        0      146       0.22358818       0.02184325
S        3.17755449       9.21701605       5.28000000        0      147       0.23756595       0.01622475
S        1.58239661      11.97991055       5.28000000        0      148       0.07135552       0.00067843
S       -0.01276126      14.74280505       5.28000000        0      149       0.24154229       0.00831916
S       -1.60791914      17.50569955       5.28000000        0      150       0.07796981       0.00680117
Se      -3.20307701      20.26859405       5.28000000        1      151       0.07277588       0.00595439
S       11.15334386       0.92833255       5.28000000        0      152       0.07670153       0.00177872
S        9.55818599       3.69122705       5.28000000        0      153       0.26130414       0.00391694
S        7.96302811       6.45412155       5.28000000        0      154       0.22481556       0.01416855
S        6.36787024       9.21701605       5.28000000        0      155       0.13022214       0.01725926
S        4.77271236      11.97991055       5.28000000        0      156       0.19714832       0.03269725
S        3.17755449      14.74280505       5.28000000        0      157       0.29052320       0.01809155
S        1.58239661      17.50569955       5.28000000        0      158       0.21472311       0.06297893
S       -0.01276126      20.26859405       5.28000000        0      159       0.07898160       0.00257382
S       14.34365961       0.92833255       5.28000000        0      160       0.21364863       0.00987550
S       12.74850174       3.69122705       5.28000000        0      161       0.14439268       0.03458607
S       11.15334386       6.45412155       5.28000000        0      162       0.21617383       0.01017852
S        9.55818599       9.21701605       5.28000000        0      163       0.17759337       0.07157400
S        7.96302811      11.97991055       5.28000000        0      164       0.18299091       0.07302498
S        6.36787024      14.74280505       5.28000000        0      165       0.11278901       0.03541389
S        4.77271236      17.50569955       5.28000000        0      166       0.13531193       0.02145015
S        3.17755449      20.26859405       5.28000000        0      167       0.22883217       0.00392011
S       17.53397536       0.92833255       5.28000000        0      168       0.14694880       0.04289532
S       15.93881749       3.69122705       5.28000000        0      169       0.20438816       0.01730508
S       14.34365961       6.45412155       5.28000000        0      170       0.10438652       0.04087744
S       12.74850174       9.21701605       5.28000000        0      171       0.22958486       0.00167241
S       11.15334386      11.97991055       5.28000000        0      172       0.18456911       0.07548445
S        9.55818599      14.74280505       5.28000000        0      173       0.13940616       0.01720211
S        7.96302811      17.50569955       5.28000000        0      174       0.07788445       0.00180226
S        6.36787024      20.26859405       5.28000000        0      175       0.14152311       0.02201277
S       20.72429111       0.92833255       5.28000000        0      176       0.19177705       0.08166884
S       19.12913324       3.69122705       5.28000000        0      177       0.20575397       0.02136843
S       17.53397536       6.45412155       5.28000000        0      178       0.21554865       0.02013506
S       15.93881749       9.21701605       5.28000000        0      179       0.15462941       0.05761636
S       14.34365961      11.97991055       5.28000000        0      180       0.21132398       0.02715604
S       12.74850174      14.74280505       5.28000000        0      181       0.22930978       0.00348833
S       11.15334386      17.50569955       5.28000000        0      182       0.15080190       0.00406077
S        9.55818599      20.26859405       5.28000000        0      183       0.13908799       0.02968272
S       23.91460686       0.92833255       5.28000000        0      184       0.15941858       0.05845944
S       22.31944899       3.69122705       5.28000000        0      185       0.22252095       0.01212456
S       20.72429111       6.45412155       5.28000000        0      186       0.15565582       0.05406839
S       19.12913324       9.21701605       5.28000000        0      187       0.20565939       0.01138683
S       17.53397536      11.97991055       5.28000000        0      188       0.20926614       0.01498615
S       15.93881749      14.74280505       5.28000000        0      189       0.21659170       0.02389753
S       14.34365961      17.50569955       5.28000000        0      190       0.09886215       0.00527360
S       12.74850174      20.26859405       5.28000000        0      191       0.19306467       0.04060211
