192
Lattice="25.522526 0.0 1.562803988602755e-15 -12.761262999849535 22.10315600030576 1.5628039947259891e-15 0.0 0.0 20.0" Properties=species:S:1:pos:R:3:node_type:I:1:site_index:I:1:importance:R:1:importance_std:R:1 pbc="T T T"
Mo       0.01276126       1.83456195       3.72000000        0        0       0.18852784       0.04963300
Mo      -1.58239661       4.59745645       3.72000000        0        1       0.04902036       0.00495605
Mo      -3.17755449       7.36035095       3.72000000        0        2       0.15474893       0.04011140
Mo      -4.77271236      10.12324545       3.72000000        0        3       0.11981118       0.04486817
Mo      -6.36787024      12.88613995       3.72000000        0        4       0.09442652       0.02630383
Mo      -7.96302811      15.64903445       3.72000000        0        5       0.04741124       0.01245495
Mo      -9.55818599      18.41192895       3.72000000        0        6       0.18161732       0.02151856
Mo     -11.15334386      21.17482345       3.72000000        0        7       0.25374132       0.03775375
Mo       3.20307701       1.83456195       3.72000000        0        8       0.30173352       0.02829102
Mo       1.60791914       4.59745645       3.72000000        0        9       0.23202510       0.04529571
Mo       0.01276126       7.36035095       3.72000000        0       10       0.32173583       0.00905708
Mo      -1.58239661      10.12324545       3.72000000        0       11       0.32797417       0.03909224
Mo      -3.17755449      12.88613995       3.72000000        0       12       0.25971973       0.02485102
Mo      -4.77271236      15.64903445       3.72000000        0       13       0.55638409       0.05057098
Mo      -6.36787024      18.41192895       3.72000000        0       14       0.23573144       0.01093700
Mo      -7.96302811      21.17482345       3.72000000        0       15       0.30424276       0.07602309
X        6.39339276       1.83456195       3.72000000        1       16       0.61579829       0.03134355
Mo       4.79823489       4.59745645       3.72000000        0       17       0.30960360       0.02689142
Mo       3.20307701       7.36035095       3.72000000        0       18       0.51701826       0.03189489
Mo       1.60791914      10.12324545       3.72000000        0       19       0.29985863       0.01244236
Mo       0.01276126      12.88613995       3.72000000        0       20       0.29711747       0.02800486
Mo      -1.58239661      15.64903445       3.72000000        0       21       0.25272286       0.05401762
Mo      -3.17755449      18.41192895       3.72000000        0       22       0.26192430       0.05196533
Mo      -4.77271236      21.17482345       3.72000000        0       23       0.48722014       0.12987247
Mo       9.58370851       1.83456195       3.72000000        0       24       0.35119531       0.10366412
Mo       7.98855064       4.59745645       3.72000000        0       25       0.30407795       0.01661903
Mo       6.39339276       7.36035095       3.72000000        0       26       0.23803313       0.05022474
Mo       4.79823489      10.12324545       3.72000000        0       27       0.18606488       0.05620202
Mo       3.20307701      12.88613995       3.72000000        0       28       0.28685942       0.03074514
Mo       1.60791914      15.64903445       3.72000000        0       29       0.31207329       0.03599307
Mo       0.01276126      18.41192895       3.72000000        0       30       0.58427542       0.06353872
Mo      -1.58239661      21.17482345       3.72000000        0       31       0.24496619       0.01089485
Mo      12.77402426       1.83456195       3.72000000        0       32       0.25692877       0.08338367
Mo      11.17886639       4.59745645       3.72000000        0       33       0.25727263       0.01639698
Mo       9.58370851       7.36035095       3.72000000        0       34       0.18241990       0.03451328
Mo       7.98855064      10.12324545       3.72000000        0       35       0.19398433       0.08285192
Mo       6.39339276      12.88613995       3.72000000        0       36       0.52420831       0.02222464
Mo       4.79823489      15.64903445       3.72000000        0       37       0.45034647       0.00215637
Mo       3.20307701      18.41192895       3.72000000        0       38       0.52867591       0.05962445
Mo       1.60791914      21.17482345       3.72000000        0       39       0.39909899       0.09786589
Mo      15.96434001       1.83456195       3.72000000        0       40       0.09998075       0.02872247
Mo      14.36918214       4.59745645       3.72000000        0       41       0.08444672       0.01534392
Mo      12.77402426       7.36035095       3.72000000        0       42       0.07066325       0.00868074
Mo      11.17886639      10.12324545       3.72000000        0       43       0.11886895       0.02550152
Mo       9.58370851      12.88613995       3.72000000        0       44       0.36518207       0.08233526
Mo       7.98855064      15.64903445       3.72000000        0       45       0.20530932       0.07346767
Mo       6.39339276      18.41192895       3.72000000        0       46       0.20394325       0.06919557
Mo       4.79823489      21.17482345       3.72000000        0       47       0.54807752       0.04331686
Mo      19.15465576       1.83456195       3.72000000        0       48       0.13184455       0.02921321
Mo      17.55949789       4.59745645       3.72000000        0       49       0.14622894       0.03324886
Mo      15.96434001       7.36035095       3.72000000        0       50       0.14435597       0.03304321
Mo      14.36918214      10.12324545       3.72000000        0       51       0.14614536       0.03230675
Mo      12.77402426      12.88613995       3.72000000        0       52       0.12736264       0.02909858
Mo      11.17886639      15.64903445       3.72000000        0       53       0.56157106       0.06133184
Mo       9.58370851      18.41192895       3.72000000        0       54       0.20934506       0.06972151
Mo       7.98855064      21.17482345       3.72000000        0       55       0.17843585       0.04414496
Mo      22.34497151       1.83456195       3.72000000        0       56       0.11904382       0.02564582
Mo      20.74981364       4.59745645       3.72000000        0       57       0.12896423       0.03220166
Mo      19.15465576       7.36035095       3.72000000        0       58       0.12179037       0.03210544
Mo      17.55949789      10.12324545       3.72000000        0       59       0.13780721       0.03327461
Mo      15.96434001      12.88613995       3.72000000        0       60       0.14746000       0.03299129
Mo      14.36918214      15.64903445       3.72000000        0       61       0.08862156       0.01977022
Mo      12.77402426      18.41192895       3.72000000        0       62       0.44076681       0.11852969
Mo      11.17886639      21.17482345       3.72000000        0       63       0.56199294       0.05989508
S        1.58239661       0.92833255       2.16000000        0       64       0.55890983       0.07123362
S       -0.01276126       3.69122705       2.16000000        0       65       0.07072970       0.02007868
S       -1.60791914       6.45412155       2.16000000        0       66       0.32220268       0.15925211
S       -3.20307701       9.21701605       2.16000000        0       67       0.45186129       0.04952126
S       -4.79823489      11.97991055       2.16000000        0       68       0.30786377       0.13296078
S       -6.39339276      14.74280505       2.16000000        0       69       0.12369981       0.02071484
S       -7.98855064      17.50569955       2.16000000        0       70       0.12207841       0.03947201
S       -9.58370851      20.26859405       2.16000000        0       71       0.43167040       0.03842375
S        4.77271236       0.92833255       2.16000000        0       72       0.63304818       0.02073848
S        3.17755449       3.69122705       2.16000000        0       73       0.58130360       0.01675215
S        1.58239661       6.45412155       2.16000000        0       74       0.31963971       0.12053303
S       -0.01276126       9.21701605       2.16000000        0       75       0.40355241       0.01785595
S       -1.60791914      11.97991055       2.16000000        0       76       0.42063808       0.01331675
S       -3.20307701      14.74280505       2.16000000        0       77       0.36730298       0.14460938
S       -4.79823489      17.50569955       2.16000000        0       78       0.56172615       0.02616838
S       -6.39339276      20.26859405       2.16000000        0       79       0.60099411       0.01677850
S        7.96302811       0.92833255       2.16000000        0       80       0.62914991       0.03773260
S        6.36787024       3.69122705       2.16000000        0       81       0.63648772       0.03133013
S        4.77271236       6.45412155       2.16000000        0       82       0.56105620       0.04390347
S        3.17755449       9.21701605       2.16000000        0       83       0.38183069       0.03119533
X        1.58239661      11.97991055       2.16000000        1       84       0.51567918       0.00564796
S       -0.01276126      14.74280505       2.16000000        0       85       0.43142343       0.02081571
S       -1.60791914      17.50569955       2.16000000        0       86       0.56078213       0.03462007
S       -3.20307701      20.26859405       2.16000000        0       87       0.22563709       0.05093969
S       11.15334386       0.92833255       2.16000000        0       88       0.59586614       0.00786945
S        9.55818599       3.69122705       2.16000000        0       89       0.56202561       0.03165304
S        7.96302811       6.45412155       2.16000000        0       90       0.33859709       0.06694715
S        6.36787024       9.21701605       2.16000000        0       91       0.47719529       0.06958312
S        4.77271236      11.97991055       2.16000000        0       92       0.45992899       0.01427805
S        3.17755449      14.74280505       2.16000000        0       93       0.32681432       0.03206462
S        1.58239661      17.50569955       2.16000000        0       94       0.43583247       0.14001635
S       -0.01276126      20.26859405       2.16000000        0       95       0.56963271       0.03323833
S       14.34365961       0.92833255       2.16000000        0       96       0.08813443       0.02006636
S       12.74850174       3.69122705       2.16000000        0       97       0.08896022       0.03385675
S       11.15334386       6.45412155       2.16000000        0       98       0.10296015       0.02779441
S        9.55818599       9.21701605       2.16000000        0       99       0.06786666       0.01907702
S        7.96302811      11.97991055       2.16000000        0      100       0.46746722       0.07855085
S        6.36787024      14.74280505       2.16000000        0      101       0.23546147       0.07052217
S        4.77271236      17.50569955       2.16000000        0      102       0.26704407       0.04972553
S        3.17755449      20.26859405       2.16000000        0      103       0.39843175       0.07079963
S       17.53397536       0.92833255       2.16000000        0      104       0.29191926       0.08915222
S       15.93881749       3.69122705       2.16000000        0      105       0.04936233       0.01404747
S       14.34365961       6.45412155       2.16000000        0      106       0.04006347       0.00095643
S       12.74850174       9.21701605       2.16000000        0      107       0.03778178       0.00397670
S       11.15334386      11.97991055       2.16000000        0      108       0.40250215       0.09370653
S        9.55818599      14.74280505       2.16000000        0      109       0.29464120       0.02944067
Se       7.96302811      17.50569955       2.16000000        1      110       0.48827901       0.05962495
S        6.36787024      20.26859405       2.16000000        0      111       0.29581702       0.05601088
S       20.72429111       0.92833255       2.16000000        0      112       0.49319959       0.06988819
S       19.12913324       3.69122705       2.16000000        0      113       0.08619343       0.02832095
S       17.53397536       6.45412155       2.16000000        0      114       0.03705823       0.00308373
S       15.93881749       9.21701605       2.16000000        0      115       0.03622863       0.00309432
S       14.34365961      11.97991055       2.16000000        0      116       0.08209262       0.02759846
S       12.74850174      14.74280505       2.16000000        0      117       0.50234246       0.05448042
S       11.15334386      17.50569955       2.16000000        0      118       0.30766803       0.05119541
S        9.55818599      20.26859405       2.16000000        0      119       0.30304387       0.01768643
S       23.91460686       0.92833255       2.16000000        0      120       0.17474061       0.08413996
S       22.31944899       3.69122705       2.16000000        0      121       0.03787122       0.00450399
S       20.72429111       6.45412155       2.16000000        0      122       0.04718088       0.00453370
S       19.12913324       9.21701605       2.16000000        0      123       0.04466869       0.01199244
S       17.53397536      11.97991055       2.16000000        0      124       0.05325371       0.01287452
S       15.93881749      14.74280505       2.16000000        0      125       0.04167295       0.00538914
S       14.34365961      17.50569955       2.16000000        0      126       0.30726424       0.09472202
S       12.74850174      20.26859405       2.16000000        0      127       0.38623121       0.09254855
S        1.58239661       0.92833255       5.28000000        0      128       0.50780177       0.05162542
S       -0.01276126       3.69122705       5.28000000        0      129       0.05047514       0.00297084
S       -1.60791914       6.45412155       5.28000000        0      130       0.07370993       0.02691602
S       -3.20307701       9.21701605       5.28000000        0      131       0.06263541       0.00854698
S       -4.79823489      11.97991055       5.28000000        0      132       0.16221689       0.09170353
S       -6.39339276      14.74280505       5.28000000        0      133       0.23781610       0.09599897
S       -7.98855064      17.50569955       5.28000000        0      134       0.50387383       0.06437779
S       -9.58370851      20.26859405       5.28000000        0      135       0.47155488       0.03220414
S        4.77271236       0.92833255       5.28000000        0      136       0.64667463       0.01671416
S        3.17755449       3.69122705       5.28000000        0      137       0.58155447       0.03601662
S        1.58239661       6.45412155       5.28000000        0      138       0.05623599       0.02535802
S       -0.01276126       9.21701605       5.28000000        0      139       0.30527556       0.18049473
S       -1.60791914      11.97991055       5.28000000        0      140       0.44786334       0.11697228
S       -3.20307701      14.74280505       5.28000000        0      141       0.45700887       0.06084241
S       -4.79823489      17.50569955       5.28000000        0      142       0.31222853       0.00854814
S       -6.39339276      20.26859405       5.28000000        0      143       0.34348068       0.01228487
S        7.96302811       0.92833255       5.28000000        0      144       0.63947707       0.02433931
S        6.36787024       3.69122705       5.28000000        0      145       0.63420510       0.02505150
S        4.77271236       6.45412155       5.28000000        0      146       0.55622560       0.05408039
S        3.17755449       9.21701605       5.28000000        0      147       0.41290173       0.13334472
S        1.58239661      11.97991055       5.28000000        0      148       0.31240001       0.01996906
S       -0.01276126      14.74280505       5.28000000        0      149       0.50359029       0.05037996
S       -1.60791914      17.50569955       5.28000000        0      150       0.29448369       0.06615082
Se      -3.20307701      20.26859405       5.28000000        1      151       0.42331466       0.22640736
S       11.15334386       0.92833255       5.28000000        0      152       0.32275817       0.01404304
S        9.55818599       3.69122705       5.28000000        0      153       0.59758168       0.04553759
S        7.96302811       6.45412155       5.28000000        0      154       0.49234927       0.02759107
S        6.36787024       9.21701605       5.28000000        0      155       0.06265276       0.01055550
S        4.77271236      11.97991055       5.28000000        0      156       0.44975170       0.04975227
S        3.17755449      14.74280505       5.28000000        0      157       0.37028798       0.02045787
S        1.58239661      17.50569955       5.28000000        0      158       0.49143267       0.07333738
S       -0.01276126      20.26859405       5.28000000        0      159       0.32601491       0.00780184
S       14.34365961       0.92833255       5.28000000        0      160       0.46343485       0.08809192
S       12.74850174       3.69122705       5.28000000        0      161       0.38707969       0.11433480
S       11.15334386       6.45412155       5.28000000        0      162       0.05740300       0.01254124
S        9.55818599       9.21701605       5.28000000        0      163       0.08260492       0.03720869
S        7.96302811      11.97991055       5.28000000        0      164       0.15436102       0.03918188
S        6.36787024      14.74280505       5.28000000        0      165       0.56928879       0.02880217
S        4.77271236      17.50569955       5.28000000        0      166       0.59696811       0.02054051
S        3.17755449      20.26859405       5.28000000        0      167       0.06533709       0.01587233
S       17.53397536       0.92833255       5.28000000        0      168       0.05370156       0.01210686
S       15.93881749       3.69122705       5.28000000        0      169       0.04097111       0.00657855
S       14.34365961       6.45412155       5.28000000        0      170       0.04608387       0.00771119
S       12.74850174       9.21701605       5.28000000        0      171       0.04135196       0.00322527
S       11.15334386      11.97991055       5.28000000        0      172       0.08353760       0.04397058
S        9.55818599      14.74280505       5.28000000        0      173       0.56840229       0.03500807
S        7.96302811      17.50569955       5.28000000        0      174       0.28248602       0.03953329
S        6.36787024      20.26859405       5.28000000        0      175       0.56343639       0.03155723
S       20.72429111       0.92833255       5.28000000        0      176       0.05537723       0.02014889
S       19.12913324       3.69122705       5.28000000        0      177       0.03722000       0.00208945
S       17.53397536       6.45412155       5.28000000        0      178       0.04129602       0.00461737
S       15.93881749       9.21701605       5.28000000        0      179       0.06552754       0.01753344
S       14.34365961      11.97991055       5.28000000        0      180       0.04993718       0.00110246
S       12.74850174      14.74280505       5.28000000        0      181       0.07810984       0.02549444
S       11.15334386      17.50569955       5.28000000        0      182       0.57310927       0.02645228
S        9.55818599      20.26859405       5.28000000        0      183       0.56866199       0.03110231
S       23.91460686       0.92833255       5.28000000        0      184       0.13156562       0.04349734
S       22.31944899       3.69122705       5.28000000        0      185       0.04219184       0.00439679
S       20.72429111       6.45412155       5.28000000        0      186       0.05105773       0.01327410
S       19.12913324       9.21701605       5.28000000        0      187       0.03952824       0.00286967
S       17.53397536      11.97991055       5.28000000        0      188       0.04525688       0.00918858
S       15.93881749      14.74280505       5.28000000        0      189       0.04369557       0.00307191
S       14.34365961      17.50569955       5.28000000        0      190       0.11449084       0.04037138
S       12.74850174      20.26859405       5.28000000        0      191       0.13299641       0.01265771
