192
Lattice="25.522526 0.0 1.562803988602755e-15 -12.761262999849535 22.10315600030576 1.5628039947259891e-15 0.0 0.0 20.0" Properties=species:S:1:pos:R:3:node_type:I:1:site_index:I:1:importance:R:1:importance_std:R:1 pbc="T T T"
Mo       0.01276126       1.83456195       3.72000000        0        0       0.06722873       0.00161093
Mo      -1.58239661       4.59745645       3.72000000        0        1       0.04470219       0.00192163
Mo      -3.17755449       7.36035095       3.72000000        0        2       0.03877659       0.00105999
Mo      -4.77271236      10.12324545       3.72000000        0        3       0.04182099       0.00136873
Mo      -6.36787024      12.88613995       3.72000000        0        4       0.04055439       0.00025783
Mo      -7.96302811      15.64903445       3.72000000        0        5       0.04492922       0.00145342
Mo      -9.55818599      18.41192895       3.72000000        0        6       0.06248836       0.00348700
Mo     -11.15334386      21.17482345       3.72000000        0        7       0.11514080       0.00311351
Mo       3.20307701       1.83456195       3.72000000        0        8       0.04761481       0.00197068
Mo       1.60791914       4.59745645       3.72000000        0        9       0.08733190       0.00245344
Mo       0.01276126       7.36035095       3.72000000        0       10       0.05137711       0.00178227
Mo      -1.58239661      10.12324545       3.72000000        0       11       0.04033192       0.00108633
Mo      -3.17755449      12.88613995       3.72000000        0       12       0.04048865       0.00097246
Mo      -4.77271236      15.64903445       3.72000000        0       13       0.05506576       0.00043014
Mo      -6.36787024      18.41192895       3.72000000        0       14       0.04370621       0.00182535
Mo      -7.96302811      21.17482345       3.72000000        0       15       0.04517566       0.00314577
X        6.39339276       1.83456195       3.72000000        1       16       0.18000849       0.00873186
Mo       4.79823489       4.59745645       3.72000000        0       17       0.04720116       0.00361356
Mo       3.20307701       7.36035095       3.72000000        0       18       0.07197925       0.00512092
Mo       1.60791914      10.12324545       3.72000000        0       19       0.04153151       0.00142490
Mo       0.01276126      12.88613995       3.72000000        0       20       0.04141780       0.00277998
Mo      -1.58239661      15.64903445       3.72000000        0       21       0.05067839       0.00221405
Mo      -3.17755449      18.41192895       3.72000000        0       22       0.05758843       0.00312159
Mo      -4.77271236      21.17482345       3.72000000        0       23       0.04314543       0.00074136
Mo       9.58370851       1.83456195       3.72000000        0       24       0.04746765       0.00121265
Mo       7.98855064       4.59745645       3.72000000        0       25       0.04841477       0.00166861
Mo       6.39339276       7.36035095       3.72000000        0       26       0.11543109       0.00380329
Mo       4.79823489      10.12324545       3.72000000        0       27       0.06363136       0.00300996
Mo       3.20307701      12.88613995       3.72000000        0       28       0.04066242       0.00202274
Mo       1.60791914      15.64903445       3.72000000        0       29       0.04207076       0.00208838
Mo       0.01276126      18.41192895       3.72000000        0       30       0.06170638       0.00210557
Mo      -1.58239661      21.17482345       3.72000000        0       31       0.07458780       0.00306819
Mo      12.77402426       1.83456195       3.72000000        0       32       0.07472868       0.00129126
Mo      11.17886639       4.59745645       3.72000000        0       33       0.08758185       0.00109915
Mo       9.58370851       7.36035095       3.72000000        0       34       0.06329698       0.00140864
Mo       7.98855064      10.12324545       3.72000000        0       35       0.05896582       0.00138983
Mo       6.39339276      12.88613995       3.72000000        0       36       0.04931584       0.00130109
Mo       4.79823489      15.64903445       3.72000000        0       37       0.04055423       0.00060252
Mo       3.20307701      18.41192895       3.72000000        0       38       0.04433762       0.00126256
Mo       1.60791914      21.17482345       3.72000000        0       39       0.06740755       0.00353531
Mo      15.96434001       1.83456195       3.72000000        0       40       0.03895670       0.00240304
Mo      14.36918214       4.59745645       3.72000000        0       41       0.05189747       0.00283446
Mo      12.77402426       7.36035095       3.72000000        0       42       0.05134828       0.00104636
Mo      11.17886639      10.12324545       3.72000000        0       43       0.04120065       0.00125705
Mo       9.58370851      12.88613995       3.72000000        0       44       0.04213791       0.00131100
Mo       7.98855064      15.64903445       3.72000000        0       45       0.03994086       0.00130977
Mo       6.39339276      18.41192895       3.72000000        0       46       0.04564963       0.00088473
Mo       4.79823489      21.17482345       3.72000000        0       47       0.04547080       0.00243174
Mo      19.15465576       1.83456195       3.72000000        0       48       0.04073172       0.00003206
Mo      17.55949789       4.59745645       3.72000000        0       49       0.04312517       0.00188924
Mo      15.96434001       7.36035095       3.72000000        0       50       0.04218307       0.00094273
Mo      14.36918214      10.12324545       3.72000000        0       51       0.03915483       0.00092278
Mo      12.77402426      12.88613995       3.72000000        0       52       0.04014488       0.00167481
Mo      11.17886639      15.64903445       3.72000000        0       53       0.04532185       0.00087823
Mo       9.58370851      18.41192895       3.72000000        0       54       0.04117824       0.00049689
Mo       7.98855064      21.17482345       3.72000000        0       55       0.04108087       0.00059695
Mo      22.34497151       1.83456195       3.72000000        0       56       0.04241943       0.00184805
Mo      20.74981364       4.59745645       3.72000000        0       57       0.04144438       0.00206358
Mo      19.15465576       7.36035095       3.72000000        0       58       0.04045121       0.00062124
Mo      17.55949789      10.12324545       3.72000000        0       59       0.04076786       0.00075861
Mo      15.96434001      12.88613995       3.72000000        0       60       0.04291715       0.00059803
Mo      14.36918214      15.64903445       3.72000000        0       61       0.04173072       0.00115622
Mo      12.77402426      18.41192895       3.72000000        0       62       0.06479197       0.00206005
Mo      11.17886639      21.17482345       3.72000000        0       63       0.06664550       0.00142923
S        1.58239661       0.92833255       2.16000000        0       64       0.04611903       0.00238236
S       -0.01276126       3.69122705       2.16000000        0       65       0.03980954       0.00186349
S       -1.60791914       6.45412155       2.16000000        0       66       0.04134691       0.00240959
S       -3.20307701       9.21701605       2.16000000        0       67       0.04143890       0.00156846
S       -4.79823489      11.97991055       2.16000000        0       68       0.04174437       0.00188965
S       -6.39339276      14.74280505       2.16000000        0       69       0.03964447       0.00211908
S       -7.98855064      17.50569955       2.16000000        0       70       0.04234360       0.00122191
S       -9.58370851      20.26859405       2.16000000        0       71       0.04646714       0.00349476
S        4.77271236       0.92833255       2.16000000        0       72       0.03956478       0.00152713
S        3.17755449       3.69122705       2.16000000        0       73       0.04216386       0.00154800
S        1.58239661       6.45412155       2.16000000        0       74       0.04411991       0.00057251
S       -0.01276126       9.21701605       2.16000000        0       75       0.04144615       0.00122966
S       -1.60791914      11.97991055       2.16000000        0       76       0.03809421       0.00217632
S       -3.20307701      14.74280505       2.16000000        0       77       0.03985056       0.00116309
S       -4.79823489      17.50569955       2.16000000        0       78       0.04031384       0.00051944
S       -6.39339276      20.26859405       2.16000000        0       79       0.04456099       0.00071185
S        7.96302811       0.92833255       2.16000000        0       80       0.04094915       0.00224932
S        6.36787024       3.69122705       2.16000000        0       81       0.04038799       0.00175103
S        4.77271236       6.45412155       2.16000000        0       82       0.04868419       0.00348304
S        3.17755449       9.21701605       2.16000000        0       83       0.03992014       0.00185336
X        1.58239661      11.97991055       2.16000000        1       84       0.04575558       0.00076880
S       -0.01276126      14.74280505       2.16000000        0       85       0.03966725       0.00108391
S       -1.60791914      17.50569955       2.16000000        0       86       0.04374310       0.00285918
S       -3.20307701      20.26859405       2.16000000        0       87       0.04128174       0.00242510
S       11.15334386       0.92833255       2.16000000        0       88       0.05021764       0.00261458
S        9.55818599       3.69122705       2.16000000        0       89       0.03958615       0.00297668
S        7.96302811       6.45412155       2.16000000        0       90       0.04588410       0.00183774
S        6.36787024       9.21701605       2.16000000        0       91       0.03980796       0.00202859
S        4.77271236      11.97991055       2.16000000        0       92       0.03882143       0.00266007
S        3.17755449      14.74280505       2.16000000        0       93       0.04205044       0.00080288
S        1.58239661      17.50569955       2.16000000        0       94       0.04041095       0.00236812
S       -0.01276126      20.26859405       2.16000000        0       95       0.04295776       0.00214664
S       14.34365961       0.92833255       2.16000000        0       96       0.04180838       0.00221301
S       12.74850174       3.69122705       2.16000000        0       97       0.04149104       0.00185938
S       11.15334386       6.45412155       2.16000000        0       98       0.04081505       0.00150972
S        9.55818599       9.21701605       2.16000000        0       99       0.03969657       0.00276942
S        7.96302811      11.97991055       2.16000000        0      100       0.04451538       0.00044412
S        6.36787024      14.74280505       2.16000000        0      101       0.04023047       0.00083527
S        4.77271236      17.50569955       2.16000000        0      102       0.04172773       0.00106848
S        3.17755449      20.26859405       2.16000000        0      103       0.03898274       0.00093516
S       17.53397536       0.92833255       2.16000000        0      104       0.04111534       0.00099605
S       15.93881749       3.69122705       2.16000000        0      105       0.04168550       0.00234963
S       14.34365961       6.45412155       2.16000000        0      106       0.04226650       0.00152122
S       12.74850174       9.21701605       2.16000000        0      107       0.04121212       0.00100873
S       11.15334386      11.97991055       2.16000000        0      108       0.03834988       0.00086247
S        9.55818599      14.74280505       2.16000000        0      109       0.04077898       0.00113385
Se       7.96302811      17.50569955       2.16000000        1      110       0.05472597       0.00058493
S        6.36787024      20.26859405       2.16000000        0      111       0.04069309       0.00172373
S       20.72429111       0.92833255       2.16000000        0      112       0.03886992       0.00191062
S       19.12913324       3.69122705       2.16000000        0      113       0.03928229       0.00132783
S       17.53397536       6.45412155       2.16000000        0      114       0.04170136       0.00095839
S       15.93881749       9.21701605       2.16000000        0      115       0.04209870       0.00062875
S       14.34365961      11.97991055       2.16000000        0      116       0.04143107       0.00212711
S       12.74850174      14.74280505       2.16000000        0      117       0.03928342       0.00097425
S       11.15334386      17.50569955       2.16000000        0      118       0.04244785       0.00178584
S        9.55818599      20.26859405       2.16000000        0      119       0.04081057       0.00192635
S       23.91460686       0.92833255       2.16000000        0      120       0.04303775       0.00217124
S       22.31944899       3.69122705       2.16000000        0      121       0.04148942       0.00071745
S       20.72429111       6.45412155       2.16000000        0      122       0.04083839       0.00107760
S       19.12913324       9.21701605       2.16000000        0      123       0.03998755       0.00141846
S       17.53397536      11.97991055       2.16000000        0      124       0.04006656       0.00129364
S       15.93881749      14.74280505       2.16000000        0      125       0.04285997       0.00137398
S       14.34365961      17.50569955       2.16000000        0      126       0.03984942       0.00098683
S       12.74850174      20.26859405       2.16000000        0      127       0.04243268       0.00105575
S        1.58239661       0.92833255       5.28000000        0      128       0.04240694       0.00208171
S       -0.01276126       3.69122705       5.28000000        0      129       0.04339819       0.00060156
S       -1.60791914       6.45412155       5.28000000        0      130       0.04250544       0.00287205
S       -3.20307701       9.21701605       5.28000000        0      131       0.04178267       0.00047820
S       -4.79823489      11.97991055       5.28000000        0      132       0.03710717       0.00165304
S       -6.39339276      14.74280505       5.28000000        0      133       0.03957946       0.00137010
S       -7.98855064      17.50569955       5.28000000        0      134       0.04094904       0.00103336
S       -9.58370851      20.26859405       5.28000000        0      135       0.04424068       0.00171054
S        4.77271236       0.92833255       5.28000000        0      136       0.04093621       0.00186406
S        3.17755449       3.69122705       5.28000000        0      137       0.04298021       0.00087762
S        1.58239661       6.45412155       5.28000000        0      138       0.04171453       0.00055771
S       -0.01276126       9.21701605       5.28000000        0      139       0.04268723       0.00309663
S       -1.60791914      11.97991055       5.28000000        0      140       0.04129111       0.00051955
S       -3.20307701      14.74280505       5.28000000        0      141       0.04202335       0.00157594
S       -4.79823489      17.50569955       5.28000000        0      142       0.04169111       0.00121999
S       -6.39339276      20.26859405       5.28000000        0      143       0.04106711       0.00130296
S        7.96302811       0.92833255       5.28000000        0      144       0.04060706       0.00322265
S        6.36787024       3.69122705       5.28000000        0      145       0.04020840       0.00164091
S        4.77271236       6.45412155       5.28000000        0      146       0.04260371       0.00344492
S        3.17755449       9.21701605       5.28000000        0      147       0.04119485       0.00068967
S        1.58239661      11.97991055       5.28000000        0      148       0.03961071       0.00027073
S       -0.01276126      14.74280505       5.28000000        0      149       0.03928554       0.00300011
S       -1.60791914      17.50569955       5.28000000        0      150       0.04207203       0.00288126
Se      -3.20307701      20.26859405       5.28000000        1      151       0.11485046       0.00159421
S       11.15334386       0.92833255       5.28000000        0      152       0.04034718       0.00077417
S        9.55818599       3.69122705       5.28000000        0      153       0.04023055       0.00158459
S        7.96302811       6.45412155       5.28000000        0      154       0.04472697       0.00073502
S        6.36787024       9.21701605       5.28000000        0      155       0.03954500       0.00109741
S        4.77271236      11.97991055       5.28000000        0      156       0.04039862       0.00161173
S        3.17755449      14.74280505       5.28000000        0      157       0.04195902       0.00149171
S        1.58239661      17.50569955       5.28000000        0      158       0.03932321       0.00142572
S       -0.01276126      20.26859405       5.28000000        0      159       0.04223935       0.00102889
S       14.34365961       0.92833255       5.28000000        0      160       0.05750200       0.00237685
S       12.74850174       3.69122705       5.28000000        0      161       0.04049557       0.00144297
S       11.15334386       6.45412155       5.28000000        0      162       0.04161723       0.00068883
S        9.55818599       9.21701605       5.28000000        0      163       0.04000850       0.00266214
S        7.96302811      11.97991055       5.28000000        0      164       0.03891751       0.00049257
S        6.36787024      14.74280505       5.28000000        0      165       0.04148171       0.00145515
S        4.77271236      17.50569955       5.28000000        0      166       0.04289937       0.00099818
S        3.17755449      20.26859405       5.28000000        0      167       0.04135060       0.00167708
S       17.53397536       0.92833255       5.28000000        0      168       0.03716919       0.00140166
S       15.93881749       3.69122705       5.28000000        0      169       0.04221948       0.00111116
S       14.34365961       6.45412155       5.28000000        0      170       0.03965532       0.00240616
S       12.74850174       9.21701605       5.28000000        0      171       0.03978979       0.00150203
S       11.15334386      11.97991055       5.28000000        0      172       0.03960921       0.00216106
S        9.55818599      14.74280505       5.28000000        0      173       0.03922177       0.00179364
S        7.96302811      17.50569955       5.28000000        0      174       0.04446371       0.00089074
S        6.36787024      20.26859405       5.28000000        0      175       0.03935607       0.00123125
S       20.72429111       0.92833255       5.28000000        0      176       0.03952904       0.00145962
S       19.12913324       3.69122705       5.28000000        0      177       0.04227868       0.00060877
S       17.53397536       6.45412155       5.28000000        0      178       0.04150145       0.00152205
S       15.93881749       9.21701605       5.28000000        0      179       0.03861576       0.00089619
S       14.34365961      11.97991055       5.28000000        0      180       0.04064762       0.00060717
S       12.74850174      14.74280505       5.28000000        0      181       0.04163438       0.00099656
S       11.15334386      17.50569955       5.28000000        0      182       0.04165073       0.00093983
S        9.55818599      20.26859405       5.28000000        0      183       0.04015916       0.00108770
S       23.91460686       0.92833255       5.28000000        0      184       0.04057516       0.00169553
S       22.31944899       3.69122705       5.28000000        0      185       0.04186755       0.00009285
S       20.72429111       6.45412155       5.28000000        0      186       0.03956310       0.00225963
S       19.12913324       9.21701605       5.28000000        0      187       0.04123563       0.00102345
S       17.53397536      11.97991055       5.28000000        0      188       0.04121539       0.00064009
S       15.93881749      14.74280505       5.28000000        0      189       0.04155621       0.00115051
S       14.34365961      17.50569955       5.28000000        0      190       0.04220076       0.00200207
S       12.74850174      20.26859405       5.28000000        0      191       0.04102447       0.00160412
