192
Lattice="25.522526 0.0 1.562803988602755e-15 -12.761262999849535 22.10315600030576 1.5628039947259891e-15 0.0 0.0 20.0" Properties=species:S:1:pos:R:3:node_type:I:1:site_index:I:1:importance:R:1:importance_std:R:1 pbc="T T T"
Mo       0.01276126       1.83456195       3.72000000        0        0       0.04904710       0.00548674
Mo      -1.58239661       4.59745645       3.72000000        0        1       0.06060516       0.00972029
Mo      -3.17755449       7.36035095       3.72000000        0        2       0.04710938       0.00426771
Mo      -4.77271236      10.12324545       3.72000000        0        3       0.05144529       0.00277916
Mo      -6.36787024      12.88613995       3.72000000        0        4       0.05279119       0.00847501
Mo      -7.96302811      15.64903445       3.72000000        0        5       0.05946989       0.00771807
Mo      -9.55818599      18.41192895       3.72000000        0        6       0.04575337       0.00904958
Mo     -11.15334386      21.17482345       3.72000000        0        7       0.05389604       0.00103502
Mo       3.20307701       1.83456195       3.72000000        0        8       0.03915791       0.00216596
Mo       1.60791914       4.59745645       3.72000000        0        9       0.05300095       0.00325781
Mo       0.01276126       7.36035095       3.72000000        0       10       0.04125551       0.00072414
Mo      -1.58239661      10.12324545       3.72000000        0       11       0.03902913       0.00134338
Mo      -3.17755449      12.88613995       3.72000000        0       12       0.04116253       0.00129069
Mo      -4.77271236      15.64903445       3.72000000        0       13       0.05340227       0.00175743
Mo      -6.36787024      18.41192895       3.72000000        0       14       0.04725419       0.00532681
Mo      -7.96302811      21.17482345       3.72000000        0       15       0.03953105       0.00219670
X        6.39339276       1.83456195       3.72000000        1       16       0.05745675       0.00237641
Mo       4.79823489       4.59745645       3.72000000        0       17       0.04072129       0.00258230
Mo       3.20307701       7.36035095       3.72000000        0       18       0.04351463       0.00262758
Mo       1.60791914      10.12324545       3.72000000        0       19       0.04087959       0.00082386
Mo       0.01276126      12.88613995       3.72000000        0       20       0.04041952       0.00278447
Mo      -1.58239661      15.64903445       3.72000000        0       21       0.04427464       0.00208732
Mo      -3.17755449      18.41192895       3.72000000        0       22       0.04360251       0.00211679
Mo      -4.77271236      21.17482345       3.72000000        0       23       0.04159188       0.00085618
Mo       9.58370851       1.83456195       3.72000000        0       24       0.04100348       0.00076945
Mo       7.98855064       4.59745645       3.72000000        0       25       0.04271093       0.00123363
Mo       6.39339276       7.36035095       3.72000000        0       26       0.04412090       0.00348288
Mo       4.79823489      10.12324545       3.72000000        0       27       0.04299036       0.00084500
Mo       3.20307701      12.88613995       3.72000000        0       28       0.04039553       0.00171387
Mo       1.60791914      15.64903445       3.72000000        0       29       0.04143966       0.00124991
Mo       0.01276126      18.41192895       3.72000000        0       30       0.04347425       0.00118819
Mo      -1.58239661      21.17482345       3.72000000        0       31       0.05515413       0.00092417
Mo      12.77402426       1.83456195       3.72000000        0       32       0.05804858       0.00436140
Mo      11.17886639       4.59745645       3.72000000        0       33       0.04646519       0.00284706
Mo       9.58370851       7.36035095       3.72000000        0       34       0.04214703       0.00175556
Mo       7.98855064      10.12324545       3.72000000        0       35       0.04985261       0.00583895
Mo       6.39339276      12.88613995       3.72000000        0       36       0.04388335       0.00001780
Mo       4.79823489      15.64903445       3.72000000        0       37       0.04296902       0.00155715
Mo       3.20307701      18.41192895       3.72000000        0       38       0.05014995       0.00113139
Mo       1.60791914      21.17482345       3.72000000        0       39       0.08446187       0.01468030
Mo      15.96434001       1.83456195       3.72000000        0       40       0.06371621       0.00640305
Mo      14.36918214       4.59745645       3.72000000        0       41       0.06010028       0.00939610
Mo      12.77402426       7.36035095       3.72000000        0       42       0.05041805       0.00607488
Mo      11.17886639      10.12324545       3.72000000        0       43       0.05632058       0.01708388
Mo       9.58370851      12.88613995       3.72000000        0       44       0.05350575       0.00928489
Mo       7.98855064      15.64903445       3.72000000        0       45       0.05214490       0.00508219
Mo       6.39339276      18.41192895       3.72000000        0       46       0.04408923       0.00298359
Mo       4.79823489      21.17482345       3.72000000        0       47       0.05334125       0.00703696
Mo      19.15465576       1.83456195       3.72000000        0       48       0.04659589       0.00369088
Mo      17.55949789       4.59745645       3.72000000        0       49       0.06837656       0.00364534
Mo      15.96434001       7.36035095       3.72000000        0       50       0.06256598       0.00869412
Mo      14.36918214      10.12324545       3.72000000        0       51       0.05272701       0.00410504
Mo      12.77402426      12.88613995       3.72000000        0       52       0.05959502       0.00842467
Mo      11.17886639      15.64903445       3.72000000        0       53       0.06650115       0.00778688
Mo       9.58370851      18.41192895       3.72000000        0       54       0.04136362       0.00123029
Mo       7.98855064      21.17482345       3.72000000        0       55       0.03975229       0.00035789
Mo      22.34497151       1.83456195       3.72000000        0       56       0.05761567       0.00579900
Mo      20.74981364       4.59745645       3.72000000        0       57       0.06330911       0.00705187
Mo      19.15465576       7.36035095       3.72000000        0       58       0.06000738       0.00840665
Mo      17.55949789      10.12324545       3.72000000        0       59       0.06180687       0.00969850
Mo      15.96434001      12.88613995       3.72000000        0       60       0.05477158       0.00813885
Mo      14.36918214      15.64903445       3.72000000        0       61       0.06548520       0.00648704
Mo      12.77402426      18.41192895       3.72000000        0       62       0.06047976       0.00434853
Mo      11.17886639      21.17482345       3.72000000        0       63       0.07414612       0.01363887
S        1.58239661       0.92833255       2.16000000        0       64       0.15570410       0.00439075
S       -0.01276126       3.69122705       2.16000000        0       65       0.12615490       0.01729350
S       -1.60791914       6.45412155       2.16000000        0       66       0.13019660       0.01527880
S       -3.20307701       9.21701605       2.16000000        0       67       0.10297528       0.02803730
S       -4.79823489      11.97991055       2.16000000        0       68       0.12598920       0.02474134
S       -6.39339276      14.74280505       2.16000000        0       69       0.10103106       0.03308256
S       -7.98855064      17.50569955       2.16000000        0       70       0.11655781       0.00986792
S       -9.58370851      20.26859405       2.16000000        0       71       0.15112980       0.00126304
S        4.77271236       0.92833255       2.16000000        0       72       0.05071594       0.00423355
S        3.17755449       3.69122705       2.16000000        0       73       0.14241549       0.00876970
S        1.58239661       6.45412155       2.16000000        0       74       0.14477603       0.01720844
S       -0.01276126       9.21701605       2.16000000        0       75       0.04604680       0.00260623
S       -1.60791914      11.97991055       2.16000000        0       76       0.04072109       0.00586586
S       -3.20307701      14.74280505       2.16000000        0       77       0.08783536       0.04657098
S       -4.79823489      17.50569955       2.16000000        0       78       0.12891169       0.01084071
S       -6.39339276      20.26859405       2.16000000        0       79       0.15863647       0.00634998
S        7.96302811       0.92833255       2.16000000        0       80       0.04296986       0.00725825
S        6.36787024       3.69122705       2.16000000        0       81       0.05862524       0.00761734
S        4.77271236       6.45412155       2.16000000        0       82       0.14917769       0.00453322
S        3.17755449       9.21701605       2.16000000        0       83       0.04449269       0.00429809
X        1.58239661      11.97991055       2.16000000        1       84       0.05771400       0.00472430
S       -0.01276126      14.74280505       2.16000000        0       85       0.04823409       0.00461260
S       -1.60791914      17.50569955       2.16000000        0       86       0.12674038       0.03212397
S       -3.20307701      20.26859405       2.16000000        0       87       0.04549807       0.00295745
S       11.15334386       0.92833255       2.16000000        0       88       0.15849838       0.00426400
S        9.55818599       3.69122705       2.16000000        0       89       0.14080176       0.00723741
S        7.96302811       6.45412155       2.16000000        0       90       0.16565055       0.00626277
S        6.36787024       9.21701605       2.16000000        0       91       0.09457308       0.01792578
S        4.77271236      11.97991055       2.16000000        0       92       0.04529992       0.00448094
S        3.17755449      14.74280505       2.16000000        0       93       0.04262016       0.00307737
S        1.58239661      17.50569955       2.16000000        0       94       0.11102935       0.04150605
S       -0.01276126      20.26859405       2.16000000        0       95       0.13202380       0.00963274
S       14.34365961       0.92833255       2.16000000        0       96       0.19415505       0.01736529
S       12.74850174       3.69122705       2.16000000        0       97       0.15245262       0.03461141
S       11.15334386       6.45412155       2.16000000        0       98       0.14857285       0.01732680
S        9.55818599       9.21701605       2.16000000        0       99       0.14765279       0.02726662
S        7.96302811      11.97991055       2.16000000        0      100       0.14957638       0.00934489
S        6.36787024      14.74280505       2.16000000        0      101       0.03782787       0.00127460
S        4.77271236      17.50569955       2.16000000        0      102       0.03938257       0.00199853
S        3.17755449      20.26859405       2.16000000        0      103       0.18450813       0.01537856
S       17.53397536       0.92833255       2.16000000        0      104       0.16873069       0.03163210
S       15.93881749       3.69122705       2.16000000        0      105       0.17840402       0.00755220
S       14.34365961       6.45412155       2.16000000        0      106       0.16255844       0.03379113
S       12.74850174       9.21701605       2.16000000        0      107       0.14685363       0.04933039
S       11.15334386      11.97991055       2.16000000        0      108       0.15782322       0.03561682
S        9.55818599      14.74280505       2.16000000        0      109       0.03856539       0.00118590
Se       7.96302811      17.50569955       2.16000000        1      110       0.08584360       0.01330583
S        6.36787024      20.26859405       2.16000000        0      111       0.03927821       0.00343378
S       20.72429111       0.92833255       2.16000000        0      112       0.14296900       0.00264454
S       19.12913324       3.69122705       2.16000000        0      113       0.16132909       0.02902794
S       17.53397536       6.45412155       2.16000000        0      114       0.16496141       0.01447189
S       15.93881749       9.21701605       2.16000000        0      115       0.17214914       0.01676867
S       14.34365961      11.97991055       2.16000000        0      116       0.13586745       0.02271496
S       12.74850174      14.74280505       2.16000000        0      117       0.22037499       0.01017637
S       11.15334386      17.50569955       2.16000000        0      118       0.09901553       0.08518731
S        9.55818599      20.26859405       2.16000000        0      119       0.03785780       0.00239395
S       23.91460686       0.92833255       2.16000000        0      120       0.17417121       0.03846059
S       22.31944899       3.69122705       2.16000000        0      121       0.18174236       0.01595317
S       20.72429111       6.45412155       2.16000000        0      122       0.13788183       0.01027320
S       19.12913324       9.21701605       2.16000000        0      123       0.16461921       0.05455350
S       17.53397536      11.97991055       2.16000000        0      124       0.14015262       0.04077949
S       15.93881749      14.74280505       2.16000000        0      125       0.13410585       0.03947179
S       14.34365961      17.50569955       2.16000000        0      126       0.16463009       0.02772617
S       12.74850174      20.26859405       2.16000000        0      127       0.22316939       0.01682680
S        1.58239661       0.92833255       5.28000000        0      128       0.15622239       0.00916693
S       -0.01276126       3.69122705       5.28000000        0      129       0.16692770       0.03369825
S       -1.60791914       6.45412155       5.28000000        0      130       0.16631585       0.02408580
S       -3.20307701       9.21701605       5.28000000        0      131       0.15078270       0.03307827
S       -4.79823489      11.97991055       5.28000000        0      132       0.14974232       0.01853925
S       -6.39339276      14.74280505       5.28000000        0      133       0.18440914       0.00733586
S       -7.98855064      17.50569955       5.28000000        0      134       0.16219728       0.04398480
S       -9.58370851      20.26859405       5.28000000        0      135       0.15163183       0.00111930
S        4.77271236       0.92833255       5.28000000        0      136       0.05314661       0.00427892
S        3.17755449       3.69122705       5.28000000        0      137       0.13993604       0.00498270
S        1.58239661       6.45412155       5.28000000        0      138       0.13433231       0.02373525
S       -0.01276126       9.21701605       5.28000000        0      139       0.10252142       0.02612778
S       -1.60791914      11.97991055       5.28000000        0      140       0.09074140       0.04612777
S       -3.20307701      14.74280505       5.28000000        0      141       0.18239118       0.01618446
S       -4.79823489      17.50569955       5.28000000        0      142       0.04074355       0.00088174
S       -6.39339276      20.26859405       5.28000000        0      143       0.04795891       0.00310217
S        7.96302811       0.92833255       5.28000000        0      144       0.05749607       0.00447379
S        6.36787024       3.69122705       5.28000000        0      145       0.05295046       0.00238758
S        4.77271236       6.45412155       5.28000000        0      146       0.15231521       0.00842352
S        3.17755449       9.21701605       5.28000000        0      147       0.12480906       0.03719610
S        1.58239661      11.97991055       5.28000000        0      148       0.04397407       0.00406133
S       -0.01276126      14.74280505       5.28000000        0      149       0.14181571       0.00926496
S       -1.60791914      17.50569955       5.28000000        0      150       0.04185591       0.00223873
Se      -3.20307701      20.26859405       5.28000000        1      151       0.10870322       0.00946936
S       11.15334386       0.92833255       5.28000000        0      152       0.04062487       0.00062169
S        9.55818599       3.69122705       5.28000000        0      153       0.14629148       0.00355085
S        7.96302811       6.45412155       5.28000000        0      154       0.14803702       0.00275612
S        6.36787024       9.21701605       5.28000000        0      155       0.12053158       0.03744508
S        4.77271236      11.97991055       5.28000000        0      156       0.10397682       0.02161209
S        3.17755449      14.74280505       5.28000000        0      157       0.14739744       0.00869214
S        1.58239661      17.50569955       5.28000000        0      158       0.14351580       0.03406177
S       -0.01276126      20.26859405       5.28000000        0      159       0.03999028       0.00190317
S       14.34365961       0.92833255       5.28000000        0      160       0.20155026       0.01168351
S       12.74850174       3.69122705       5.28000000        0      161       0.16777569       0.00628871
S       11.15334386       6.45412155       5.28000000        0      162       0.13380572       0.00150089
S        9.55818599       9.21701605       5.28000000        0      163       0.12440679       0.04374604
S        7.96302811      11.97991055       5.28000000        0      164       0.15022855       0.01908865
S        6.36787024      14.74280505       5.28000000        0      165       0.12557185       0.03867190
S        4.77271236      17.50569955       5.28000000        0      166       0.12970378       0.00399820
S        3.17755449      20.26859405       5.28000000        0      167       0.17877440       0.04361109
S       17.53397536       0.92833255       5.28000000        0      168       0.12054968       0.01898099
S       15.93881749       3.69122705       5.28000000        0      169       0.18102609       0.00732238
S       14.34365961       6.45412155       5.28000000        0      170       0.15549815       0.03450410
S       12.74850174       9.21701605       5.28000000        0      171       0.12137488       0.04717223
S       11.15334386      11.97991055       5.28000000        0      172       0.11558629       0.04481018
S        9.55818599      14.74280505       5.28000000        0      173       0.10802025       0.00243351
S        7.96302811      17.50569955       5.28000000        0      174       0.04183368       0.00105860
S        6.36787024      20.26859405       5.28000000        0      175       0.09460530       0.02216326
S       20.72429111       0.92833255       5.28000000        0      176       0.08640543       0.01211725
S       19.12913324       3.69122705       5.28000000        0      177       0.15919437       0.00687973
S       17.53397536       6.45412155       5.28000000        0      178       0.17192447       0.01499075
S       15.93881749       9.21701605       5.28000000        0      179       0.14015739       0.03116783
S       14.34365961      11.97991055       5.28000000        0      180       0.14035633       0.02084978
S       12.74850174      14.74280505       5.28000000        0      181       0.11004605       0.02478923
S       11.15334386      17.50569955       5.28000000        0      182       0.09100322       0.01948399
S        9.55818599      20.26859405       5.28000000        0      183       0.08419836       0.02685461
S       23.91460686       0.92833255       5.28000000        0      184       0.14550455       0.02829838
S       22.31944899       3.69122705       5.28000000        0      185       0.15688591       0.00820366
S       20.72429111       6.45412155       5.28000000        0      186       0.15977494       0.01752871
S       19.12913324       9.21701605       5.28000000        0      187       0.16897108       0.03380557
S       17.53397536      11.97991055       5.28000000        0      188       0.14999998       0.01669475
S       15.93881749      14.74280505       5.28000000        0      189       0.16318464       0.02130128
S       14.34365961      17.50569955       5.28000000        0      190       0.12093585       0.02480942
S       12.74850174      20.26859405       5.28000000        0      191       0.14249872       0.00490617
