192
Lattice="25.522526 0.0 1.562803988602755e-15 -12.761262999849535 22.10315600030576 1.5628039947259891e-15 0.0 0.0 20.0" Properties=species:S:1:pos:R:3:node_type:I:1:site_index:I:1:importance:R:1:importance_std:R:1 pbc="T T T"
Mo       0.01276126       1.83456195       3.72000000        0        0       0.62418574       0.00000000
Mo      -1.58239661       4.59745645       3.72000000        0        1       0.46020615       0.00000000
Mo      -3.17755449       7.36035095       3.72000000        0        2       0.33725098       0.00000000
Mo      -4.77271236      10.12324545       3.72000000        0        3       0.62876457       0.00000000
Mo      -6.36787024      12.88613995       3.72000000        0        4       0.36960688       0.00000000
Mo      -7.96302811      15.64903445       3.72000000        0        5       0.38079977       0.00000000
Mo      -9.55818599      18.41192895       3.72000000        0        6       0.62276357       0.00000000
Mo     -11.15334386      21.17482345       3.72000000        0        7       0.60154164       0.00000000
Mo       3.20307701       1.83456195       3.72000000        0        8       0.51763344       0.00000000
Mo       1.60791914       4.59745645       3.72000000        0        9       0.60820889       0.00000000
Mo       0.01276126       7.36035095       3.72000000        0       10       0.59051400       0.00000000
Mo      -1.58239661      10.12324545       3.72000000        0       11       0.46253118       0.00000000
Mo      -3.17755449      12.88613995       3.72000000        0       12       0.58313215       0.00000000
Mo      -4.77271236      15.64903445       3.72000000        0       13       0.36555019       0.00000000
Mo      -6.36787024      18.41192895       3.72000000        0       14       0.43507934       0.00000000
Mo      -7.96302811      21.17482345       3.72000000        0       15       0.55058926       0.00000000
X        6.39339276       1.83456195       3.72000000        1       16       0.00000000       0.00000000
Mo       4.79823489       4.59745645       3.72000000        0       17       0.57026869       0.00000000
Mo       3.20307701       7.36035095       3.72000000        0       18       0.63240194       0.00000000
Mo       1.60791914      10.12324545       3.72000000        0       19       0.40207288       0.00000000
Mo       0.01276126      12.88613995       3.72000000        0       20       0.42935884       0.00000000
Mo      -1.58239661      15.64903445       3.72000000        0       21       0.61893964       0.00000000
Mo      -3.17755449      18.41192895       3.72000000        0       22       0.41720170       0.00000000
Mo      -4.77271236      21.17482345       3.72000000        0       23       0.62535524       0.00000000
Mo       9.58370851       1.83456195       3.72000000        0       24       0.50542146       0.00000000
Mo       7.98855064       4.59745645       3.72000000        0       25       0.60793293       0.00000000
Mo       6.39339276       7.36035095       3.72000000        0       26       0.59912091       0.00000000
Mo       4.79823489      10.12324545       3.72000000        0       27       0.61741054       0.00000000
Mo       3.20307701      12.88613995       3.72000000        0       28       0.41726127       0.00000000
Mo       1.60791914      15.64903445       3.72000000        0       29       0.41875106       0.00000000
Mo       0.01276126      18.41192895       3.72000000        0       30       0.63269585       0.00000000
Mo      -1.58239661      21.17482345       3.72000000        0       31       0.42567489       0.00000000
Mo      12.77402426       1.83456195       3.72000000        0       32       0.44755000       0.00000000
Mo      11.17886639       4.59745645       3.72000000        0       33       0.54128450       0.00000000
Mo       9.58370851       7.36035095       3.72000000        0       34       0.58276230       0.00000000
Mo       7.98855064      10.12324545       3.72000000        0       35       0.62344879       0.00000000
Mo       6.39339276      12.88613995       3.72000000        0       36       0.36661991       0.00000000
Mo       4.79823489      15.64903445       3.72000000        0       37       0.43363488       0.00000000
Mo       3.20307701      18.41192895       3.72000000        0       38       0.41309640       0.00000000
Mo       1.60791914      21.17482345       3.72000000        0       39       0.59557515       0.00000000
Mo      15.96434001       1.83456195       3.72000000        0       40       0.32183436       0.00000000
Mo      14.36918214       4.59745645       3.72000000        0       41       0.36984903       0.00000000
Mo      12.77402426       7.36035095       3.72000000        0       42       0.59741378       0.00000000
Mo      11.17886639      10.12324545       3.72000000        0       43       0.33334103       0.00000000
Mo       9.58370851      12.88613995       3.72000000        0       44       0.35392150       0.00000000
Mo       7.98855064      15.64903445       3.72000000        0       45       0.39573616       0.00000000
Mo       6.39339276      18.41192895       3.72000000        0       46       0.44222748       0.00000000
Mo       4.79823489      21.17482345       3.72000000        0       47       0.37753952       0.00000000
Mo      19.15465576       1.83456195       3.72000000        0       48       0.37631601       0.00000000
Mo      17.55949789       4.59745645       3.72000000        0       49       0.58241266       0.00000000
Mo      15.96434001       7.36035095       3.72000000        0       50       0.52614737       0.00000000
Mo      14.36918214      10.12324545       3.72000000        0       51       0.35152498       0.00000000
Mo      12.77402426      12.88613995       3.72000000        0       52       0.36207613       0.00000000
Mo      11.17886639      15.64903445       3.72000000        0       53       0.61741078       0.00000000
Mo       9.58370851      18.41192895       3.72000000        0       54       0.43270117       0.00000000
Mo       7.98855064      21.17482345       3.72000000        0       55       0.43698251       0.00000000
Mo      22.34497151       1.83456195       3.72000000        0       56       0.48780289       0.00000000
Mo      20.74981364       4.59745645       3.72000000        0       57       0.53978163       0.00000000
Mo      19.15465576       7.36035095       3.72000000        0       58       0.60171521       0.00000000
Mo      17.55949789      10.12324545       3.72000000        0       59       0.36784643       0.00000000
Mo      15.96434001      12.88613995       3.72000000        0       60       0.55995828       0.00000000
Mo      14.36918214      15.64903445       3.72000000        0       61       0.37794524       0.00000000
Mo      12.77402426      18.41192895       3.72000000        0       62       0.61966294       0.00000000
Mo      11.17886639      21.17482345       3.72000000        0       63       0.61351871       0.00000000
S        1.58239661       0.92833255       2.16000000        0       64       0.65506583       0.00000000
S       -0.01276126       3.69122705       2.16000000        0       65       0.57341170       0.00000000
S       -1.60791914       6.45412155       2.16000000        0       66       0.61452913       0.00000000
S       -3.20307701       9.21701605       2.16000000        0       67       0.66821390       0.00000000
S       -4.79823489      11.97991055       2.16000000        0       68       0.64857739       0.00000000
S       -6.39339276      14.74280505       2.16000000        0       69       0.60404962       0.00000000
S       -7.98855064      17.50569955       2.16000000        0       70       0.58341628       0.00000000
S       -9.58370851      20.26859405       2.16000000        0       71       0.56275928       0.00000000
S        4.77271236       0.92833255       2.16000000        0       72       0.66338134       0.00000000
S        3.17755449       3.69122705       2.16000000        0       73       0.56813490       0.00000000
S        1.58239661       6.45412155       2.16000000        0       74       0.63433135       0.00000000
S       -0.01276126       9.21701605       2.16000000        0       75       0.38609895       0.00000000
S       -1.60791914      11.97991055       2.16000000        0       76       0.38117921       0.00000000
S       -3.20307701      14.74280505       2.16000000        0       77       0.57984960       0.00000000
S       -4.79823489      17.50569955       2.16000000        0       78       0.60450786       0.00000000
S       -6.39339276      20.26859405       2.16000000        0       79       0.63422596       0.00000000
S        7.96302811       0.92833255       2.16000000        0       80       0.52524894       0.00000000
S        6.36787024       3.69122705       2.16000000        0       81       0.61066180       0.00000000
S        4.77271236       6.45412155       2.16000000        0       82       0.64844096       0.00000000
S        3.17755449       9.21701605       2.16000000        0       83       0.39278334       0.00000000
X        1.58239661      11.97991055       2.16000000        1       84       0.00000000       0.00000000
S       -0.01276126      14.74280505       2.16000000        0       85       0.39482239       0.00000000
S       -1.60791914      17.50569955       2.16000000        0       86       0.60523975       0.00000000
S       -3.20307701      20.26859405       2.16000000        0       87       0.61631960       0.00000000
S       11.15334386       0.92833255       2.16000000        0       88       0.61101753       0.00000000
S        9.55818599       3.69122705       2.16000000        0       89       0.41012436       0.00000000
S        7.96302811       6.45412155       2.16000000        0       90       0.62911493       0.00000000
S        6.36787024       9.21701605       2.16000000        0       91       0.62318170       0.00000000
S        4.77271236      11.97991055       2.16000000        0       92       0.38614395       0.00000000
S        3.17755449      14.74280505       2.16000000        0       93       0.50173318       0.00000000
S        1.58239661      17.50569955       2.16000000        0       94       0.58630282       0.00000000
S       -0.01276126      20.26859405       2.16000000        0       95       0.60266250       0.00000000
S       14.34365961       0.92833255       2.16000000        0       96       0.58546275       0.00000000
S       12.74850174       3.69122705       2.16000000        0       97       0.60716331       0.00000000
S       11.15334386       6.45412155       2.16000000        0       98       0.60101050       0.00000000
S        9.55818599       9.21701605       2.16000000        0       99       0.61141759       0.00000000
S        7.96302811      11.97991055       2.16000000        0      100       0.65253049       0.00000000
S        6.36787024      14.74280505       2.16000000        0      101       0.55177075       0.00000000
S        4.77271236      17.50569955       2.16000000        0      102       0.50513947       0.00000000
S        3.17755449      20.26859405       2.16000000        0      103       0.62929773       0.00000000
S       17.53397536       0.92833255       2.16000000        0      104       0.63446367       0.00000000
S       15.93881749       3.69122705       2.16000000        0      105       0.66135460       0.00000000
S       14.34365961       6.45412155       2.16000000        0      106       0.59543067       0.00000000
S       12.74850174       9.21701605       2.16000000        0      107       0.63661027       0.00000000
S       11.15334386      11.97991055       2.16000000        0      108       0.58643788       0.00000000
S        9.55818599      14.74280505       2.16000000        0      109       0.58956903       0.00000000
Se       7.96302811      17.50569955       2.16000000        1      110       0.46509200       0.00000000
S        6.36787024      20.26859405       2.16000000        0      111       0.49924228       0.00000000
S       20.72429111       0.92833255       2.16000000        0      112       0.56720668       0.00000000
S       19.12913324       3.69122705       2.16000000        0      113       0.58002281       0.00000000
S       17.53397536       6.45412155       2.16000000        0      114       0.62996536       0.00000000
S       15.93881749       9.21701605       2.16000000        0      115       0.63804966       0.00000000
S       14.34365961      11.97991055       2.16000000        0      116       0.59660608       0.00000000
S       12.74850174      14.74280505       2.16000000        0      117       0.60378343       0.00000000
S       11.15334386      17.50569955       2.16000000        0      118       0.63471830       0.00000000
S        9.55818599      20.26859405       2.16000000        0      119       0.46649832       0.00000000
S       23.91460686       0.92833255       2.16000000        0      120       0.61123914       0.00000000
S       22.31944899       3.69122705       2.16000000        0      121       0.57919145       0.00000000
S       20.72429111       6.45412155       2.16000000        0      122       0.60099763       0.00000000
S       19.12913324       9.21701605       2.16000000        0      123       0.59842682       0.00000000
S       17.53397536      11.97991055       2.16000000        0      124       0.59161544       0.00000000
S       15.93881749      14.74280505       2.16000000        0      125       0.61326212       0.00000000
S       14.34365961      17.50569955       2.16000000        0      126       0.60921901       0.00000000
S       12.74850174      20.26859405       2.16000000        0      127       0.61257249       0.00000000
S        1.58239661       0.92833255       5.28000000        0      128       0.55978030       0.00000000
S       -0.01276126       3.69122705       5.28000000        0      129       0.64083803       0.00000000
S       -1.60791914       6.45412155       5.28000000        0      130       0.67603070       0.00000000
S       -3.20307701       9.21701605       5.28000000        0      131       0.60682905       0.00000000
S       -4.79823489      11.97991055       5.28000000        0      132       0.58683509       0.00000000
S       -6.39339276      14.74280505       5.28000000        0      133       0.61766660       0.00000000
S       -7.98855064      17.50569955       5.28000000        0      134       0.56557393       0.00000000
S       -9.58370851      20.26859405       5.28000000        0      135       0.64688092       0.00000000
S        4.77271236       0.92833255       5.28000000        0      136       0.54303527       0.00000000
S        3.17755449       3.69122705       5.28000000        0      137       0.55771542       0.00000000
S        1.58239661       6.45412155       5.28000000        0      138       0.62049949       0.00000000
S       -0.01276126       9.21701605       5.28000000        0      139       0.56511045       0.00000000
S       -1.60791914      11.97991055       5.28000000        0      140       0.61057866       0.00000000
S       -3.20307701      14.74280505       5.28000000        0      141       0.56307137       0.00000000
S       -4.79823489      17.50569955       5.28000000        0      142       0.57639563       0.00000000
S       -6.39339276      20.26859405       5.28000000        0      143       0.60815400       0.00000000
S        7.96302811       0.92833255       5.28000000        0      144       0.43784252       0.00000000
S        6.36787024       3.69122705       5.28000000        0      145       0.47623381       0.00000000
S        4.77271236       6.45412155       5.28000000        0      146       0.56864083       0.00000000
S        3.17755449       9.21701605       5.28000000        0      147       0.64791435       0.00000000
S        1.58239661      11.97991055       5.28000000        0      148       0.37786621       0.00000000
S       -0.01276126      14.74280505       5.28000000        0      149       0.60723740       0.00000000
S       -1.60791914      17.50569955       5.28000000        0      150       0.60130525       0.00000000
Se      -3.20307701      20.26859405       5.28000000        1      151       0.47562158       0.00000000
S       11.15334386       0.92833255       5.28000000        0      152       0.57143676       0.00000000
S        9.55818599       3.69122705       5.28000000        0      153       0.55877471       0.00000000
S        7.96302811       6.45412155       5.28000000        0      154       0.59363747       0.00000000
S        6.36787024       9.21701605       5.28000000        0      155       0.60639513       0.00000000
S        4.77271236      11.97991055       5.28000000        0      156       0.58240986       0.00000000
S        3.17755449      14.74280505       5.28000000        0      157       0.62089169       0.00000000
S        1.58239661      17.50569955       5.28000000        0      158       0.49477661       0.00000000
S       -0.01276126      20.26859405       5.28000000        0      159       0.62917745       0.00000000
S       14.34365961       0.92833255       5.28000000        0      160       0.60917264       0.00000000
S       12.74850174       3.69122705       5.28000000        0      161       0.58645189       0.00000000
S       11.15334386       6.45412155       5.28000000        0      162       0.61429101       0.00000000
S        9.55818599       9.21701605       5.28000000        0      163       0.60880435       0.00000000
S        7.96302811      11.97991055       5.28000000        0      164       0.59271455       0.00000000
S        6.36787024      14.74280505       5.28000000        0      165       0.61517841       0.00000000
S        4.77271236      17.50569955       5.28000000        0      166       0.62210280       0.00000000
S        3.17755449      20.26859405       5.28000000        0      167       0.58464181       0.00000000
S       17.53397536       0.92833255       5.28000000        0      168       0.56874239       0.00000000
S       15.93881749       3.69122705       5.28000000        0      169       0.63998359       0.00000000
S       14.34365961       6.45412155       5.28000000        0      170       0.62418652       0.00000000
S       12.74850174       9.21701605       5.28000000        0      171       0.62913597       0.00000000
S       11.15334386      11.97991055       5.28000000        0      172       0.63334137       0.00000000
S        9.55818599      14.74280505       5.28000000        0      173       0.60052365       0.00000000
S        7.96302811      17.50569955       5.28000000        0      174       0.58931398       0.00000000
S        6.36787024      20.26859405       5.28000000        0      175       0.59421450       0.00000000
S       20.72429111       0.92833255       5.28000000        0      176       0.58345044       0.00000000
S       19.12913324       3.69122705       5.28000000        0      177       0.61293948       0.00000000
S       17.53397536       6.45412155       5.28000000        0      178       0.62685764       0.00000000
S       15.93881749       9.21701605       5.28000000        0      179       0.56860387       0.00000000
S       14.34365961      11.97991055       5.28000000        0      180       0.61175799       0.00000000
S       12.74850174      14.74280505       5.28000000        0      181       0.60209864       0.00000000
S       11.15334386      17.50569955       5.28000000        0      182       0.61535579       0.00000000
S        9.55818599      20.26859405       5.28000000        0      183       0.62516171       0.00000000
S       23.91460686       0.92833255       5.28000000        0      184       0.61712444       0.00000000
S       22.31944899       3.69122705       5.28000000        0      185       0.61077875       0.00000000
S       20.72429111       6.45412155       5.28000000        0      186       0.57381982       0.00000000
S       19.12913324       9.21701605       5.28000000        0      187       0.63366765       0.00000000
S       17.53397536      11.97991055       5.28000000        0      188       0.61733913       0.00000000
S       15.93881749      14.74280505       5.28000000        0      189       0.61177230       0.00000000
S       14.34365961      17.50569955       5.28000000        0      190       0.61803561       0.00000000
S       12.74850174      20.26859405       5.28000000        0      191       0.61932570       0.00000000
