192
Lattice="25.522526 0.0 1.562803988602755e-15 -12.761262999849535 22.10315600030576 1.5628039947259891e-15 0.0 0.0 20.0" Properties=species:S:1:pos:R:3:node_type:I:1:site_index:I:1:importance:R:1:importance_std:R:1 pbc="T T T"
Mo       0.01276126       1.83456195       3.72000000        0        0       0.32723844       0.00000000
Mo      -1.58239661       4.59745645       3.72000000        0        1       0.30381602       0.00000000
Mo      -3.17755449       7.36035095       3.72000000        0        2       0.26599270       0.00000000
Mo      -4.77271236      10.12324545       3.72000000        0        3       0.30985811       0.00000000
Mo      -6.36787024      12.88613995       3.72000000        0        4       0.29231289       0.00000000
Mo      -7.96302811      15.64903445       3.72000000        0        5       0.31254146       0.00000000
Mo      -9.55818599      18.41192895       3.72000000        0        6       0.33245987       0.00000000
Mo     -11.15334386      21.17482345       3.72000000        0        7       0.30658397       0.00000000
Mo       3.20307701       1.83456195       3.72000000        0        8       0.32374391       0.00000000
Mo       1.60791914       4.59745645       3.72000000        0        9       0.29831398       0.00000000
Mo       0.01276126       7.36035095       3.72000000        0       10       0.29420125       0.00000000
Mo      -1.58239661      10.12324545       3.72000000        0       11       0.30915856       0.00000000
Mo      -3.17755449      12.88613995       3.72000000        0       12       0.27484336       0.00000000
Mo      -4.77271236      15.64903445       3.72000000        0       13       0.32283920       0.00000000
Mo      -6.36787024      18.41192895       3.72000000        0       14       0.32223171       0.00000000
Mo      -7.96302811      21.17482345       3.72000000        0       15       0.28124011       0.00000000
X        6.39339276       1.83456195       3.72000000        1       16       0.00000000       0.00000000
Mo       4.79823489       4.59745645       3.72000000        0       17       0.26762131       0.00000000
Mo       3.20307701       7.36035095       3.72000000        0       18       0.34012413       0.00000000
Mo       1.60791914      10.12324545       3.72000000        0       19       0.28908432       0.00000000
Mo       0.01276126      12.88613995       3.72000000        0       20       0.25945503       0.00000000
Mo      -1.58239661      15.64903445       3.72000000        0       21       0.30551773       0.00000000
Mo      -3.17755449      18.41192895       3.72000000        0       22       0.31890720       0.00000000
Mo      -4.77271236      21.17482345       3.72000000        0       23       0.30320227       0.00000000
Mo       9.58370851       1.83456195       3.72000000        0       24       0.29738393       0.00000000
Mo       7.98855064       4.59745645       3.72000000        0       25       0.29708651       0.00000000
Mo       6.39339276       7.36035095       3.72000000        0       26       0.30247349       0.00000000
Mo       4.79823489      10.12324545       3.72000000        0       27       0.31115815       0.00000000
Mo       3.20307701      12.88613995       3.72000000        0       28       0.31392762       0.00000000
Mo       1.60791914      15.64903445       3.72000000        0       29       0.30950117       0.00000000
Mo       0.01276126      18.41192895       3.72000000        0       30       0.31579730       0.00000000
Mo      -1.58239661      21.17482345       3.72000000        0       31       0.25705466       0.00000000
Mo      12.77402426       1.83456195       3.72000000        0       32       0.30625460       0.00000000
Mo      11.17886639       4.59745645       3.72000000        0       33       0.27824798       0.00000000
Mo       9.58370851       7.36035095       3.72000000        0       34       0.28153363       0.00000000
Mo       7.98855064      10.12324545       3.72000000        0       35       0.33726105       0.00000000
Mo       6.39339276      12.88613995       3.72000000        0       36       0.29054275       0.00000000
Mo       4.79823489      15.64903445       3.72000000        0       37       0.30141538       0.00000000
Mo       3.20307701      18.41192895       3.72000000        0       38       0.30945787       0.00000000
Mo       1.60791914      21.17482345       3.72000000        0       39       0.29422235       0.00000000
Mo      15.96434001       1.83456195       3.72000000        0       40       0.24683574       0.00000000
Mo      14.36918214       4.59745645       3.72000000        0       41       0.28859705       0.00000000
Mo      12.77402426       7.36035095       3.72000000        0       42       0.28681484       0.00000000
Mo      11.17886639      10.12324545       3.72000000        0       43       0.27374008       0.00000000
Mo       9.58370851      12.88613995       3.72000000        0       44       0.27291849       0.00000000
Mo       7.98855064      15.64903445       3.72000000        0       45       0.28542316       0.00000000
Mo       6.39339276      18.41192895       3.72000000        0       46       0.32462135       0.00000000
Mo       4.79823489      21.17482345       3.72000000        0       47       0.27948040       0.00000000
Mo      19.15465576       1.83456195       3.72000000        0       48       0.29705790       0.00000000
Mo      17.55949789       4.59745645       3.72000000        0       49       0.33216003       0.00000000
Mo      15.96434001       7.36035095       3.72000000        0       50       0.31979251       0.00000000
Mo      14.36918214      10.12324545       3.72000000        0       51       0.27503666       0.00000000
Mo      12.77402426      12.88613995       3.72000000        0       52       0.27581894       0.00000000
Mo      11.17886639      15.64903445       3.72000000        0       53       0.30820066       0.00000000
Mo       9.58370851      18.41192895       3.72000000        0       54       0.31195036       0.00000000
Mo       7.98855064      21.17482345       3.72000000        0       55       0.29986069       0.00000000
Mo      22.34497151       1.83456195       3.72000000        0       56       0.33192083       0.00000000
Mo      20.74981364       4.59745645       3.72000000        0       57       0.32284227       0.00000000
Mo      19.15465576       7.36035095       3.72000000        0       58       0.29724631       0.00000000
Mo      17.55949789      10.12324545       3.72000000        0       59       0.28813511       0.00000000
Mo      15.96434001      12.88613995       3.72000000        0       60       0.32385638       0.00000000
Mo      14.36918214      15.64903445       3.72000000        0       61       0.30296031       0.00000000
Mo      12.77402426      18.41192895       3.72000000        0       62       0.32514954       0.00000000
Mo      11.17886639      21.17482345       3.72000000        0       63       0.32976028       0.00000000
S        1.58239661       0.92833255       2.16000000        0       64       0.33668986       0.00000000
S       -0.01276126       3.69122705       2.16000000        0       65       0.26593921       0.00000000
S       -1.60791914       6.45412155       2.16000000        0       66       0.30293918       0.00000000
S       -3.20307701       9.21701605       2.16000000        0       67       0.31994694       0.00000000
S       -4.79823489      11.97991055       2.16000000        0       68       0.33147252       0.00000000
S       -6.39339276      14.74280505       2.16000000        0       69       0.29582262       0.00000000
S       -7.98855064      17.50569955       2.16000000        0       70       0.29221603       0.00000000
S       -9.58370851      20.26859405       2.16000000        0       71       0.26111090       0.00000000
S        4.77271236       0.92833255       2.16000000        0       72       0.32217282       0.00000000
S        3.17755449       3.69122705       2.16000000        0       73       0.28396085       0.00000000
S        1.58239661       6.45412155       2.16000000        0       74       0.34837183       0.00000000
S       -0.01276126       9.21701605       2.16000000        0       75       0.30112520       0.00000000
S       -1.60791914      11.97991055       2.16000000        0       76       0.24334937       0.00000000
S       -3.20307701      14.74280505       2.16000000        0       77       0.27211627       0.00000000
S       -4.79823489      17.50569955       2.16000000        0       78       0.28899983       0.00000000
S       -6.39339276      20.26859405       2.16000000        0       79       0.31417742       0.00000000
S        7.96302811       0.92833255       2.16000000        0       80       0.30627573       0.00000000
S        6.36787024       3.69122705       2.16000000        0       81       0.30084106       0.00000000
S        4.77271236       6.45412155       2.16000000        0       82       0.33079743       0.00000000
S        3.17755449       9.21701605       2.16000000        0       83       0.27828866       0.00000000
X        1.58239661      11.97991055       2.16000000        1       84       0.00000000       0.00000000
S       -0.01276126      14.74280505       2.16000000        0       85       0.30860269       0.00000000
S       -1.60791914      17.50569955       2.16000000        0       86       0.28368583       0.00000000
S       -3.20307701      20.26859405       2.16000000        0       87       0.31691220       0.00000000
S       11.15334386       0.92833255       2.16000000        0       88       0.29167363       0.00000000
S        9.55818599       3.69122705       2.16000000        0       89       0.29980811       0.00000000
S        7.96302811       6.45412155       2.16000000        0       90       0.30553600       0.00000000
S        6.36787024       9.21701605       2.16000000        0       91       0.33187041       0.00000000
S        4.77271236      11.97991055       2.16000000        0       92       0.25976905       0.00000000
S        3.17755449      14.74280505       2.16000000        0       93       0.30826721       0.00000000
S        1.58239661      17.50569955       2.16000000        0       94       0.28352875       0.00000000
S       -0.01276126      20.26859405       2.16000000        0       95       0.28590006       0.00000000
S       14.34365961       0.92833255       2.16000000        0       96       0.26253024       0.00000000
S       12.74850174       3.69122705       2.16000000        0       97       0.29740945       0.00000000
S       11.15334386       6.45412155       2.16000000        0       98       0.29051939       0.00000000
S        9.55818599       9.21701605       2.16000000        0       99       0.30165070       0.00000000
S        7.96302811      11.97991055       2.16000000        0      100       0.33422953       0.00000000
S        6.36787024      14.74280505       2.16000000        0      101       0.30432075       0.00000000
S        4.77271236      17.50569955       2.16000000        0      102       0.31712088       0.00000000
S        3.17755449      20.26859405       2.16000000        0      103       0.30049697       0.00000000
S       17.53397536       0.92833255       2.16000000        0      104       0.32000306       0.00000000
S       15.93881749       3.69122705       2.16000000        0      105       0.34550995       0.00000000
S       14.34365961       6.45412155       2.16000000        0      106       0.29027379       0.00000000
S       12.74850174       9.21701605       2.16000000        0      107       0.31807154       0.00000000
S       11.15334386      11.97991055       2.16000000        0      108       0.27802506       0.00000000
S        9.55818599      14.74280505       2.16000000        0      109       0.30517030       0.00000000
Se       7.96302811      17.50569955       2.16000000        1      110       0.32374942       0.00000000
S        6.36787024      20.26859405       2.16000000        0      111       0.31828892       0.00000000
S       20.72429111       0.92833255       2.16000000        0      112       0.26138562       0.00000000
S       19.12913324       3.69122705       2.16000000        0      113       0.27124184       0.00000000
S       17.53397536       6.45412155       2.16000000        0      114       0.31592810       0.00000000
S       15.93881749       9.21701605       2.16000000        0      115       0.31828260       0.00000000
S       14.34365961      11.97991055       2.16000000        0      116       0.28761923       0.00000000
S       12.74850174      14.74280505       2.16000000        0      117       0.30920631       0.00000000
S       11.15334386      17.50569955       2.16000000        0      118       0.29728666       0.00000000
S        9.55818599      20.26859405       2.16000000        0      119       0.30314708       0.00000000
S       23.91460686       0.92833255       2.16000000        0      120       0.29958048       0.00000000
S       22.31944899       3.69122705       2.16000000        0      121       0.31703368       0.00000000
S       20.72429111       6.45412155       2.16000000        0      122       0.29098725       0.00000000
S       19.12913324       9.21701605       2.16000000        0      123       0.28863457       0.00000000
S       17.53397536      11.97991055       2.16000000        0      124       0.28211495       0.00000000
S       15.93881749      14.74280505       2.16000000        0      125       0.30557039       0.00000000
S       14.34365961      17.50569955       2.16000000        0      126       0.30434591       0.00000000
S       12.74850174      20.26859405       2.16000000        0      127       0.32724836       0.00000000
S        1.58239661       0.92833255       5.28000000        0      128       0.25702167       0.00000000
S       -0.01276126       3.69122705       5.28000000        0      129       0.32456475       0.00000000
S       -1.60791914       6.45412155       5.28000000        0      130       0.35225403       0.00000000
S       -3.20307701       9.21701605       5.28000000        0      131       0.30504552       0.00000000
S       -4.79823489      11.97991055       5.28000000        0      132       0.27425092       0.00000000
S       -6.39339276      14.74280505       5.28000000        0      133       0.30685416       0.00000000
S       -7.98855064      17.50569955       5.28000000        0      134       0.31372422       0.00000000
S       -9.58370851      20.26859405       5.28000000        0      135       0.32058766       0.00000000
S        4.77271236       0.92833255       5.28000000        0      136       0.28675357       0.00000000
S        3.17755449       3.69122705       5.28000000        0      137       0.30947444       0.00000000
S        1.58239661       6.45412155       5.28000000        0      138       0.30983022       0.00000000
S       -0.01276126       9.21701605       5.28000000        0      139       0.26939678       0.00000000
S       -1.60791914      11.97991055       5.28000000        0      140       0.29562381       0.00000000
S       -3.20307701      14.74280505       5.28000000        0      141       0.31046778       0.00000000
S       -4.79823489      17.50569955       5.28000000        0      142       0.30624694       0.00000000
S       -6.39339276      20.26859405       5.28000000        0      143       0.27938724       0.00000000
S        7.96302811       0.92833255       5.28000000        0      144       0.31987596       0.00000000
S        6.36787024       3.69122705       5.28000000        0      145       0.32312268       0.00000000
S        4.77271236       6.45412155       5.28000000        0      146       0.26905569       0.00000000
S        3.17755449       9.21701605       5.28000000        0      147       0.29196799       0.00000000
S        1.58239661      11.97991055       5.28000000        0      148       0.29153985       0.00000000
S       -0.01276126      14.74280505       5.28000000        0      149       0.29396978       0.00000000
S       -1.60791914      17.50569955       5.28000000        0      150       0.28620714       0.00000000
Se      -3.20307701      20.26859405       5.28000000        1      151       0.36880648       0.00000000
S       11.15334386       0.92833255       5.28000000        0      152       0.31474304       0.00000000
S        9.55818599       3.69122705       5.28000000        0      153       0.28538114       0.00000000
S        7.96302811       6.45412155       5.28000000        0      154       0.28663668       0.00000000
S        6.36787024       9.21701605       5.28000000        0      155       0.30082589       0.00000000
S        4.77271236      11.97991055       5.28000000        0      156       0.28544217       0.00000000
S        3.17755449      14.74280505       5.28000000        0      157       0.32167494       0.00000000
S        1.58239661      17.50569955       5.28000000        0      158       0.31802946       0.00000000
S       -0.01276126      20.26859405       5.28000000        0      159       0.32081884       0.00000000
S       14.34365961       0.92833255       5.28000000        0      160       0.30716810       0.00000000
S       12.74850174       3.69122705       5.28000000        0      161       0.28013718       0.00000000
S       11.15334386       6.45412155       5.28000000        0      162       0.30949968       0.00000000
S        9.55818599       9.21701605       5.28000000        0      163       0.29299769       0.00000000
S        7.96302811      11.97991055       5.28000000        0      164       0.28080779       0.00000000
S        6.36787024      14.74280505       5.28000000        0      165       0.29150411       0.00000000
S        4.77271236      17.50569955       5.28000000        0      166       0.30868560       0.00000000
S        3.17755449      20.26859405       5.28000000        0      167       0.31049871       0.00000000
S       17.53397536       0.92833255       5.28000000        0      168       0.25814843       0.00000000
S       15.93881749       3.69122705       5.28000000        0      169       0.32870343       0.00000000
S       14.34365961       6.45412155       5.28000000        0      170       0.31394163       0.00000000
S       12.74850174       9.21701605       5.28000000        0      171       0.31159249       0.00000000
S       11.15334386      11.97991055       5.28000000        0      172       0.32019249       0.00000000
S        9.55818599      14.74280505       5.28000000        0      173       0.30278298       0.00000000
S        7.96302811      17.50569955       5.28000000        0      174       0.31108886       0.00000000
S        6.36787024      20.26859405       5.28000000        0      175       0.27514359       0.00000000
S       20.72429111       0.92833255       5.28000000        0      176       0.28288984       0.00000000
S       19.12913324       3.69122705       5.28000000        0      177       0.30709764       0.00000000
S       17.53397536       6.45412155       5.28000000        0      178       0.31219760       0.00000000
S       15.93881749       9.21701605       5.28000000        0      179       0.26435915       0.00000000
S       14.34365961      11.97991055       5.28000000        0      180       0.30005264       0.00000000
S       12.74850174      14.74280505       5.28000000        0      181       0.28960520       0.00000000
S       11.15334386      17.50569955       5.28000000        0      182       0.30195507       0.00000000
S        9.55818599      20.26859405       5.28000000        0      183       0.31073925       0.00000000
S       23.91460686       0.92833255       5.28000000        0      184       0.31052285       0.00000000
S       22.31944899       3.69122705       5.28000000        0      185       0.30913514       0.00000000
S       20.72429111       6.45412155       5.28000000        0      186       0.26773927       0.00000000
S       19.12913324       9.21701605       5.28000000        0      187       0.31520942       0.00000000
S       17.53397536      11.97991055       5.28000000        0      188       0.30444366       0.00000000
S       15.93881749      14.74280505       5.28000000        0      189       0.29802340       0.00000000
S       14.34365961      17.50569955       5.28000000        0      190       0.30469948       0.00000000
S       12.74850174      20.26859405       5.28000000        0      191       0.30359888       0.00000000
