192
Lattice="25.522526 0.0 1.562803988602755e-15 -12.761262999849535 22.10315600030576 1.5628039947259891e-15 0.0 0.0 20.0" Properties=species:S:1:pos:R:3:node_type:I:1:site_index:I:1:importance:R:1:importance_std:R:1 pbc="T T T"
Mo       0.01276126       1.83456195       3.72000000        0        0       0.33485848       0.00000000
Mo      -1.58239661       4.59745645       3.72000000        0        1       0.29827219       0.00000000
Mo      -3.17755449       7.36035095       3.72000000        0        2       0.26122671       0.00000000
Mo      -4.77271236      10.12324545       3.72000000        0        3       0.30434307       0.00000000
Mo      -6.36787024      12.88613995       3.72000000        0        4       0.28771049       0.00000000
Mo      -7.96302811      15.64903445       3.72000000        0        5       0.30697349       0.00000000
Mo      -9.55818599      18.41192895       3.72000000        0        6       0.33839807       0.00000000
Mo     -11.15334386      21.17482345       3.72000000        0        7       0.30509478       0.00000000
Mo       3.20307701       1.83456195       3.72000000        0        8       0.31743494       0.00000000
Mo       1.60791914       4.59745645       3.72000000        0        9       0.29488423       0.00000000
Mo       0.01276126       7.36035095       3.72000000        0       10       0.29971123       0.00000000
Mo      -1.58239661      10.12324545       3.72000000        0       11       0.31467211       0.00000000
Mo      -3.17755449      12.88613995       3.72000000        0       12       0.26920843       0.00000000
Mo      -4.77271236      15.64903445       3.72000000        0       13       0.31736639       0.00000000
Mo      -6.36787024      18.41192895       3.72000000        0       14       0.31485575       0.00000000
Mo      -7.96302811      21.17482345       3.72000000        0       15       0.27494243       0.00000000
X        6.39339276       1.83456195       3.72000000        1       16       0.00000000       0.00000000
Mo       4.79823489       4.59745645       3.72000000        0       17       0.26325223       0.00000000
Mo       3.20307701       7.36035095       3.72000000        0       18       0.33401737       0.00000000
Mo       1.60791914      10.12324545       3.72000000        0       19       0.28219736       0.00000000
Mo       0.01276126      12.88613995       3.72000000        0       20       0.25598150       0.00000000
Mo      -1.58239661      15.64903445       3.72000000        0       21       0.30373582       0.00000000
Mo      -3.17755449      18.41192895       3.72000000        0       22       0.31227443       0.00000000
Mo      -4.77271236      21.17482345       3.72000000        0       23       0.29742655       0.00000000
Mo       9.58370851       1.83456195       3.72000000        0       24       0.29324636       0.00000000
Mo       7.98855064       4.59745645       3.72000000        0       25       0.29160497       0.00000000
Mo       6.39339276       7.36035095       3.72000000        0       26       0.29830521       0.00000000
Mo       4.79823489      10.12324545       3.72000000        0       27       0.30615696       0.00000000
Mo       3.20307701      12.88613995       3.72000000        0       28       0.30828759       0.00000000
Mo       1.60791914      15.64903445       3.72000000        0       29       0.30244705       0.00000000
Mo       0.01276126      18.41192895       3.72000000        0       30       0.31105980       0.00000000
Mo      -1.58239661      21.17482345       3.72000000        0       31       0.25913188       0.00000000
Mo      12.77402426       1.83456195       3.72000000        0       32       0.30020046       0.00000000
Mo      11.17886639       4.59745645       3.72000000        0       33       0.27145690       0.00000000
Mo       9.58370851       7.36035095       3.72000000        0       34       0.27567229       0.00000000
Mo       7.98855064      10.12324545       3.72000000        0       35       0.33110437       0.00000000
Mo       6.39339276      12.88613995       3.72000000        0       36       0.28481233       0.00000000
Mo       4.79823489      15.64903445       3.72000000        0       37       0.30910197       0.00000000
Mo       3.20307701      18.41192895       3.72000000        0       38       0.30949712       0.00000000
Mo       1.60791914      21.17482345       3.72000000        0       39       0.28842995       0.00000000
Mo      15.96434001       1.83456195       3.72000000        0       40       0.25073898       0.00000000
Mo      14.36918214       4.59745645       3.72000000        0       41       0.28343549       0.00000000
Mo      12.77402426       7.36035095       3.72000000        0       42       0.28211388       0.00000000
Mo      11.17886639      10.12324545       3.72000000        0       43       0.26894501       0.00000000
Mo       9.58370851      12.88613995       3.72000000        0       44       0.26751244       0.00000000
Mo       7.98855064      15.64903445       3.72000000        0       45       0.29130420       0.00000000
Mo       6.39339276      18.41192895       3.72000000        0       46       0.33085427       0.00000000
Mo       4.79823489      21.17482345       3.72000000        0       47       0.27481529       0.00000000
Mo      19.15465576       1.83456195       3.72000000        0       48       0.29328808       0.00000000
Mo      17.55949789       4.59745645       3.72000000        0       49       0.32903111       0.00000000
Mo      15.96434001       7.36035095       3.72000000        0       50       0.31405255       0.00000000
Mo      14.36918214      10.12324545       3.72000000        0       51       0.27007633       0.00000000
Mo      12.77402426      12.88613995       3.72000000        0       52       0.27082688       0.00000000
Mo      11.17886639      15.64903445       3.72000000        0       53       0.31477028       0.00000000
Mo       9.58370851      18.41192895       3.72000000        0       54       0.31695962       0.00000000
Mo       7.98855064      21.17482345       3.72000000        0       55       0.30618939       0.00000000
Mo      22.34497151       1.83456195       3.72000000        0       56       0.32628107       0.00000000
Mo      20.74981364       4.59745645       3.72000000        0       57       0.31782728       0.00000000
Mo      19.15465576       7.36035095       3.72000000        0       58       0.29204693       0.00000000
Mo      17.55949789      10.12324545       3.72000000        0       59       0.28287560       0.00000000
Mo      15.96434001      12.88613995       3.72000000        0       60       0.31868920       0.00000000
Mo      14.36918214      15.64903445       3.72000000        0       61       0.29733029       0.00000000
Mo      12.77402426      18.41192895       3.72000000        0       62       0.31852180       0.00000000
Mo      11.17886639      21.17482345       3.72000000        0       63       0.33445144       0.00000000
S        1.58239661       0.92833255       2.16000000        0       64       0.37790444       0.00000000
S       -0.01276126       3.69122705       2.16000000        0       65       0.39234582       0.00000000
S       -1.60791914       6.45412155       2.16000000        0       66       0.34092072       0.00000000
S       -3.20307701       9.21701605       2.16000000        0       67       0.40276313       0.00000000
S       -4.79823489      11.97991055       2.16000000        0       68       0.37419850       0.00000000
S       -6.39339276      14.74280505       2.16000000        0       69       0.34192032       0.00000000
S       -7.98855064      17.50569955       2.16000000        0       70       0.43070179       0.00000000
S       -9.58370851      20.26859405       2.16000000        0       71       0.33887085       0.00000000
S        4.77271236       0.92833255       2.16000000        0       72       0.31673625       0.00000000
S        3.17755449       3.69122705       2.16000000        0       73       0.41917917       0.00000000
S        1.58239661       6.45412155       2.16000000        0       74       0.39734656       0.00000000
S       -0.01276126       9.21701605       2.16000000        0       75       0.29467624       0.00000000
S       -1.60791914      11.97991055       2.16000000        0       76       0.24845776       0.00000000
S       -3.20307701      14.74280505       2.16000000        0       77       0.44555035       0.00000000
S       -4.79823489      17.50569955       2.16000000        0       78       0.33949479       0.00000000
S       -6.39339276      20.26859405       2.16000000        0       79       0.41447657       0.00000000
S        7.96302811       0.92833255       2.16000000        0       80       0.31862801       0.00000000
S        6.36787024       3.69122705       2.16000000        0       81       0.30970520       0.00000000
S        4.77271236       6.45412155       2.16000000        0       82       0.40914586       0.00000000
S        3.17755449       9.21701605       2.16000000        0       83       0.28206694       0.00000000
X        1.58239661      11.97991055       2.16000000        1       84       0.00000000       0.00000000
S       -0.01276126      14.74280505       2.16000000        0       85       0.31391430       0.00000000
S       -1.60791914      17.50569955       2.16000000        0       86       0.43459544       0.00000000
S       -3.20307701      20.26859405       2.16000000        0       87       0.33130109       0.00000000
S       11.15334386       0.92833255       2.16000000        0       88       0.46711895       0.00000000
S        9.55818599       3.69122705       2.16000000        0       89       0.45848426       0.00000000
S        7.96302811       6.45412155       2.16000000        0       90       0.44669610       0.00000000
S        6.36787024       9.21701605       2.16000000        0       91       0.34669790       0.00000000
S        4.77271236      11.97991055       2.16000000        0       92       0.26833388       0.00000000
S        3.17755449      14.74280505       2.16000000        0       93       0.31291386       0.00000000
S        1.58239661      17.50569955       2.16000000        0       94       0.41546714       0.00000000
S       -0.01276126      20.26859405       2.16000000        0       95       0.38506821       0.00000000
S       14.34365961       0.92833255       2.16000000        0       96       0.41557136       0.00000000
S       12.74850174       3.69122705       2.16000000        0       97       0.38786444       0.00000000
S       11.15334386       6.45412155       2.16000000        0       98       0.43043268       0.00000000
S        9.55818599       9.21701605       2.16000000        0       99       0.42663038       0.00000000
S        7.96302811      11.97991055       2.16000000        0      100       0.40741959       0.00000000
S        6.36787024      14.74280505       2.16000000        0      101       0.31028897       0.00000000
S        4.77271236      17.50569955       2.16000000        0      102       0.32396162       0.00000000
S        3.17755449      20.26859405       2.16000000        0      103       0.43896073       0.00000000
S       17.53397536       0.92833255       2.16000000        0      104       0.34859681       0.00000000
S       15.93881749       3.69122705       2.16000000        0      105       0.41780257       0.00000000
S       14.34365961       6.45412155       2.16000000        0      106       0.36388147       0.00000000
S       12.74850174       9.21701605       2.16000000        0      107       0.43589658       0.00000000
S       11.15334386      11.97991055       2.16000000        0      108       0.44286159       0.00000000
S        9.55818599      14.74280505       2.16000000        0      109       0.31202355       0.00000000
Se       7.96302811      17.50569955       2.16000000        1      110       0.50523967       0.00000000
S        6.36787024      20.26859405       2.16000000        0      111       0.32602498       0.00000000
S       20.72429111       0.92833255       2.16000000        0      112       0.45554885       0.00000000
S       19.12913324       3.69122705       2.16000000        0      113       0.43664649       0.00000000
S       17.53397536       6.45412155       2.16000000        0      114       0.44383344       0.00000000
S       15.93881749       9.21701605       2.16000000        0      115       0.44078827       0.00000000
S       14.34365961      11.97991055       2.16000000        0      116       0.33332744       0.00000000
S       12.74850174      14.74280505       2.16000000        0      117       0.44059509       0.00000000
S       11.15334386      17.50569955       2.16000000        0      118       0.30384845       0.00000000
S        9.55818599      20.26859405       2.16000000        0      119       0.31052002       0.00000000
S       23.91460686       0.92833255       2.16000000        0      120       0.38894373       0.00000000
S       22.31944899       3.69122705       2.16000000        0      121       0.36901480       0.00000000
S       20.72429111       6.45412155       2.16000000        0      122       0.32866904       0.00000000
S       19.12913324       9.21701605       2.16000000        0      123       0.35150537       0.00000000
S       17.53397536      11.97991055       2.16000000        0      124       0.32632899       0.00000000
S       15.93881749      14.74280505       2.16000000        0      125       0.44566435       0.00000000
S       14.34365961      17.50569955       2.16000000        0      126       0.42571947       0.00000000
S       12.74850174      20.26859405       2.16000000        0      127       0.36330420       0.00000000
S        1.58239661       0.92833255       5.28000000        0      128       0.35049063       0.00000000
S       -0.01276126       3.69122705       5.28000000        0      129       0.34593165       0.00000000
S       -1.60791914       6.45412155       5.28000000        0      130       0.38845652       0.00000000
S       -3.20307701       9.21701605       5.28000000        0      131       0.33867410       0.00000000
S       -4.79823489      11.97991055       5.28000000        0      132       0.43269426       0.00000000
S       -6.39339276      14.74280505       5.28000000        0      133       0.41677961       0.00000000
S       -7.98855064      17.50569955       5.28000000        0      134       0.44205400       0.00000000
S       -9.58370851      20.26859405       5.28000000        0      135       0.44062573       0.00000000
S        4.77271236       0.92833255       5.28000000        0      136       0.28243241       0.00000000
S        3.17755449       3.69122705       5.28000000        0      137       0.46699762       0.00000000
S        1.58239661       6.45412155       5.28000000        0      138       0.32870749       0.00000000
S       -0.01276126       9.21701605       5.28000000        0      139       0.30344883       0.00000000
S       -1.60791914      11.97991055       5.28000000        0      140       0.46757570       0.00000000
S       -3.20307701      14.74280505       5.28000000        0      141       0.44092265       0.00000000
S       -4.79823489      17.50569955       5.28000000        0      142       0.32076317       0.00000000
S       -6.39339276      20.26859405       5.28000000        0      143       0.29200426       0.00000000
S        7.96302811       0.92833255       5.28000000        0      144       0.33736283       0.00000000
S        6.36787024       3.69122705       5.28000000        0      145       0.33192450       0.00000000
S        4.77271236       6.45412155       5.28000000        0      146       0.44468835       0.00000000
S        3.17755449       9.21701605       5.28000000        0      147       0.44456306       0.00000000
S        1.58239661      11.97991055       5.28000000        0      148       0.28404891       0.00000000
S       -0.01276126      14.74280505       5.28000000        0      149       0.41960731       0.00000000
S       -1.60791914      17.50569955       5.28000000        0      150       0.30094042       0.00000000
Se      -3.20307701      20.26859405       5.28000000        1      151       0.51543188       0.00000000
S       11.15334386       0.92833255       5.28000000        0      152       0.32746264       0.00000000
S        9.55818599       3.69122705       5.28000000        0      153       0.46988001       0.00000000
S        7.96302811       6.45412155       5.28000000        0      154       0.44946781       0.00000000
S        6.36787024       9.21701605       5.28000000        0      155       0.34828424       0.00000000
S        4.77271236      11.97991055       5.28000000        0      156       0.44800305       0.00000000
S        3.17755449      14.74280505       5.28000000        0      157       0.46347836       0.00000000
S        1.58239661      17.50569955       5.28000000        0      158       0.42131421       0.00000000
S       -0.01276126      20.26859405       5.28000000        0      159       0.33569852       0.00000000
S       14.34365961       0.92833255       5.28000000        0      160       0.44880947       0.00000000
S       12.74850174       3.69122705       5.28000000        0      161       0.43351075       0.00000000
S       11.15334386       6.45412155       5.28000000        0      162       0.44172898       0.00000000
S        9.55818599       9.21701605       5.28000000        0      163       0.33833331       0.00000000
S        7.96302811      11.97991055       5.28000000        0      164       0.45773393       0.00000000
S        6.36787024      14.74280505       5.28000000        0      165       0.37395620       0.00000000
S        4.77271236      17.50569955       5.28000000        0      166       0.39782503       0.00000000
S        3.17755449      20.26859405       5.28000000        0      167       0.35701743       0.00000000
S       17.53397536       0.92833255       5.28000000        0      168       0.30648494       0.00000000
S       15.93881749       3.69122705       5.28000000        0      169       0.34796089       0.00000000
S       14.34365961       6.45412155       5.28000000        0      170       0.37410668       0.00000000
S       12.74850174       9.21701605       5.28000000        0      171       0.43488085       0.00000000
S       11.15334386      11.97991055       5.28000000        0      172       0.44752571       0.00000000
S        9.55818599      14.74280505       5.28000000        0      173       0.42458642       0.00000000
S        7.96302811      17.50569955       5.28000000        0      174       0.31980953       0.00000000
S        6.36787024      20.26859405       5.28000000        0      175       0.43578574       0.00000000
S       20.72429111       0.92833255       5.28000000        0      176       0.32804912       0.00000000
S       19.12913324       3.69122705       5.28000000        0      177       0.37931067       0.00000000
S       17.53397536       6.45412155       5.28000000        0      178       0.40061563       0.00000000
S       15.93881749       9.21701605       5.28000000        0      179       0.44555014       0.00000000
S       14.34365961      11.97991055       5.28000000        0      180       0.42245415       0.00000000
S       12.74850174      14.74280505       5.28000000        0      181       0.36446112       0.00000000
S       11.15334386      17.50569955       5.28000000        0      182       0.43899786       0.00000000
S        9.55818599      20.26859405       5.28000000        0      183       0.44099432       0.00000000
S       23.91460686       0.92833255       5.28000000        0      184       0.44085154       0.00000000
S       22.31944899       3.69122705       5.28000000        0      185       0.44591042       0.00000000
S       20.72429111       6.45412155       5.28000000        0      186       0.44317511       0.00000000
S       19.12913324       9.21701605       5.28000000        0      187       0.39602920       0.00000000
S       17.53397536      11.97991055       5.28000000        0      188       0.44797823       0.00000000
S       15.93881749      14.74280505       5.28000000        0      189       0.34237114       0.00000000
S       14.34365961      17.50569955       5.28000000        0      190       0.37311044       0.00000000
S       12.74850174      20.26859405       5.28000000        0      191       0.42988014       0.00000000
