192
Lattice="25.522526 0.0 1.562803988602755e-15 -12.761262999849535 22.10315600030576 1.5628039947259891e-15 0.0 0.0 20.0" Properties=species:S:1:pos:R:3:node_type:I:1:site_index:I:1 pbc="T T T"
Mo       0.01276126       1.83456195       3.72000000        0        0
Mo      -1.58239661       4.59745645       3.72000000        0        1
Mo      -3.17755449       7.36035095       3.72000000        0        2
Mo      -4.77271236      10.12324545       3.72000000        0        3
Mo      -6.36787024      12.88613995       3.72000000        0        4
Mo      -7.96302811      15.64903445       3.72000000        0        5
Mo      -9.55818599      18.41192895       3.72000000        0        6
Mo     -11.15334386      21.17482345       3.72000000        0        7
Mo       3.20307701       1.83456195       3.72000000        0        8
Mo       1.60791914       4.59745645       3.72000000        0        9
Mo       0.01276126       7.36035095       3.72000000        0       10
Mo      -1.58239661      10.12324545       3.72000000        0       11
Mo      -3.17755449      12.88613995       3.72000000        0       12
Mo      -4.77271236      15.64903445       3.72000000        0       13
Mo      -6.36787024      18.41192895       3.72000000        0       14
Mo      -7.96302811      21.17482345       3.72000000        0       15
X        6.39339276       1.83456195       3.72000000        1       16
Mo       4.79823489       4.59745645       3.72000000        0       17
Mo       3.20307701       7.36035095       3.72000000        0       18
Mo       1.60791914      10.12324545       3.72000000        0       19
Mo       0.01276126      12.88613995       3.72000000        0       20
Mo      -1.58239661      15.64903445       3.72000000        0       21
Mo      -3.17755449      18.41192895       3.72000000        0       22
Mo      -4.77271236      21.17482345       3.72000000        0       23
Mo       9.58370851       1.83456195       3.72000000        0       24
Mo       7.98855064       4.59745645       3.72000000        0       25
Mo       6.39339276       7.36035095       3.72000000        0       26
Mo       4.79823489      10.12324545       3.72000000        0       27
Mo       3.20307701      12.88613995       3.72000000        0       28
Mo       1.60791914      15.64903445       3.72000000        0       29
Mo       0.01276126      18.41192895       3.72000000        0       30
Mo      -1.58239661      21.17482345       3.72000000        0       31
Mo      12.77402426       1.83456195       3.72000000        0       32
Mo      11.17886639       4.59745645       3.72000000        0       33
Mo       9.58370851       7.36035095       3.72000000        0       34
Mo       7.98855064      10.12324545       3.72000000        0       35
Mo       6.39339276      12.88613995       3.72000000        0       36
Mo       4.79823489      15.64903445       3.72000000        0       37
Mo       3.20307701      18.41192895       3.72000000        0       38
Mo       1.60791914      21.17482345       3.72000000        0       39
Mo      15.96434001       1.83456195       3.72000000        0       40
Mo      14.36918214       4.59745645       3.72000000        0       41
Mo      12.77402426       7.36035095       3.72000000        0       42
Mo      11.17886639      10.12324545       3.72000000        0       43
Mo       9.58370851      12.88613995       3.72000000        0       44
Mo       7.98855064      15.64903445       3.72000000        0       45
Mo       6.39339276      18.41192895       3.72000000        0       46
Mo       4.79823489      21.17482345       3.72000000        0       47
Mo      19.15465576       1.83456195       3.72000000        0       48
Mo      17.55949789       4.59745645       3.72000000        0       49
Mo      15.96434001       7.36035095       3.72000000        0       50
Mo      14.36918214      10.12324545       3.72000000        0       51
Mo      12.77402426      12.88613995       3.72000000        0       52
Mo      11.17886639      15.64903445       3.72000000        0       53
Mo       9.58370851      18.41192895       3.72000000        0       54
Mo       7.98855064      21.17482345       3.72000000        0       55
Mo      22.34497151       1.83456195       3.72000000        0       56
Mo      20.74981364       4.59745645       3.72000000        0       57
Mo      19.15465576       7.36035095       3.72000000        0       58
Mo      17.55949789      10.12324545       3.72000000        0       59
Mo      15.96434001      12.88613995       3.72000000        0       60
Mo      14.36918214      15.64903445       3.72000000        0       61
Mo      12.77402426      18.41192895       3.72000000        0       62
Mo      11.17886639      21.17482345       3.72000000        0       63
S        1.58239661       0.92833255       2.16000000        0       64
S       -0.01276126       3.69122705       2.16000000        0       65
S       -1.60791914       6.45412155       2.16000000        0       66
S       -3.20307701       9.21701605       2.16000000        0       67
S       -4.79823489      11.97991055       2.16000000        0       68
S       -6.39339276      14.74280505       2.16000000        0       69
S       -7.98855064      17.50569955       2.16000000        0       70
S       -9.58370851      20.26859405       2.16000000        0       71
S        4.77271236       0.92833255       2.16000000        0       72
S        3.17755449       3.69122705       2.16000000        0       73
S        1.58239661       6.45412155       2.16000000        0       74
S       -0.01276126       9.21701605       2.16000000        0       75
S       -1.60791914      11.97991055       2.16000000        0       76
S       -3.20307701      14.74280505       2.16000000        0       77
S       -4.79823489      17.50569955       2.16000000        0       78
S       -6.39339276      20.26859405       2.16000000        0       79
S        7.96302811       0.92833255       2.16000000        0       80
S        6.36787024       3.69122705       2.16000000        0       81
S        4.77271236       6.45412155       2.16000000        0       82
S        3.17755449       9.21701605       2.16000000        0       83
X        1.58239661      11.97991055       2.16000000        1       84
S       -0.01276126      14.74280505       2.16000000        0       85
S       -1.60791914      17.50569955       2.16000000        0       86
S       -3.20307701      20.26859405       2.16000000        0       87
S       11.15334386       0.92833255       2.16000000        0       88
S        9.55818599       3.69122705       2.16000000        0       89
S        7.96302811       6.45412155       2.16000000        0       90
S        6.36787024       9.21701605       2.16000000        0       91
S        4.77271236      11.97991055       2.16000000        0       92
S        3.17755449      14.74280505       2.16000000        0       93
S        1.58239661      17.50569955       2.16000000        0       94
S       -0.01276126      20.26859405       2.16000000        0       95
S       14.34365961       0.92833255       2.16000000        0       96
S       12.74850174       3.69122705       2.16000000        0       97
S       11.15334386       6.45412155       2.16000000        0       98
S        9.55818599       9.21701605       2.16000000        0       99
S        7.96302811      11.97991055       2.16000000        0      100
S        6.36787024      14.74280505       2.16000000        0      101
S        4.77271236      17.50569955       2.16000000        0      102
S        3.17755449      20.26859405       2.16000000        0      103
S       17.53397536       0.92833255       2.16000000        0      104
S       15.93881749       3.69122705       2.16000000        0      105
S       14.34365961       6.45412155       2.16000000        0      106
S       12.74850174       9.21701605       2.16000000        0      107
S       11.15334386      11.97991055       2.16000000        0      108
S        9.55818599      14.74280505       2.16000000        0      109
Se       7.96302811      17.50569955       2.16000000        1      110
S        6.36787024      20.26859405       2.16000000        0      111
S       20.72429111       0.92833255       2.16000000        0      112
S       19.12913324       3.69122705       2.16000000        0      113
S       17.53397536       6.45412155       2.16000000        0      114
S       15.93881749       9.21701605       2.16000000        0      115
S       14.34365961      11.97991055       2.16000000        0      116
S       12.74850174      14.74280505       2.16000000        0      117
S       11.15334386      17.50569955       2.16000000        0      118
S        9.55818599      20.26859405       2.16000000        0      119
S       23.91460686       0.92833255       2.16000000        0      120
S       22.31944899       3.69122705       2.16000000        0      121
S       20.72429111       6.45412155       2.16000000        0      122
S       19.12913324       9.21701605       2.16000000        0      123
S       17.53397536      11.97991055       2.16000000        0      124
S       15.93881749      14.74280505       2.16000000        0      125
S       14.34365961      17.50569955       2.16000000        0      126
S       12.74850174      20.26859405       2.16000000        0      127
S        1.58239661       0.92833255       5.28000000        0      128
S       -0.01276126       3.69122705       5.28000000        0      129
S       -1.60791914       6.45412155       5.28000000        0      130
S       -3.20307701       9.21701605       5.28000000        0      131
S       -4.79823489      11.97991055       5.28000000        0      132
S       -6.39339276      14.74280505       5.28000000        0      133
S       -7.98855064      17.50569955       5.28000000        0      134
S       -9.58370851      20.26859405       5.28000000        0      135
S        4.77271236       0.92833255       5.28000000        0      136
S        3.17755449       3.69122705       5.28000000        0      137
S        1.58239661       6.45412155       5.28000000        0      138
S       -0.01276126       9.21701605       5.28000000        0      139
S       -1.60791914      11.97991055       5.28000000        0      140
S       -3.20307701      14.74280505       5.28000000        0      141
S       -4.79823489      17.50569955       5.28000000        0      142
S       -6.39339276      20.26859405       5.28000000        0      143
S        7.96302811       0.92833255       5.28000000        0      144
S        6.36787024       3.69122705       5.28000000        0      145
S        4.77271236       6.45412155       5.28000000        0      146
S        3.17755449       9.21701605       5.28000000        0      147
S        1.58239661      11.97991055       5.28000000        0      148
S       -0.01276126      14.74280505       5.28000000        0      149
S       -1.60791914      17.50569955       5.28000000        0      150
Se      -3.20307701      20.26859405       5.28000000        1      151
S       11.15334386       0.92833255       5.28000000        0      152
S        9.55818599       3.69122705       5.28000000        0      153
S        7.96302811       6.45412155       5.28000000        0      154
S        6.36787024       9.21701605       5.28000000        0      155
S        4.77271236      11.97991055       5.28000000        0      156
S        3.17755449      14.74280505       5.28000000        0      157
S        1.58239661      17.50569955       5.28000000        0      158
S       -0.01276126      20.26859405       5.28000000        0      159
S       14.34365961       0.92833255       5.28000000        0      160
S       12.74850174       3.69122705       5.28000000        0      161
S       11.15334386       6.45412155       5.28000000        0      162
S        9.55818599       9.21701605       5.28000000        0      163
S        7.96302811      11.97991055       5.28000000        0      164
S        6.36787024      14.74280505       5.28000000        0      165
S        4.77271236      17.50569955       5.28000000        0      166
S        3.17755449      20.26859405       5.28000000        0      167
S       17.53397536       0.92833255       5.28000000        0      168
S       15.93881749       3.69122705       5.28000000        0      169
S       14.34365961       6.45412155       5.28000000        0      170
S       12.74850174       9.21701605       5.28000000        0      171
S       11.15334386      11.97991055       5.28000000        0      172
S        9.55818599      14.74280505       5.28000000        0      173
S        7.96302811      17.50569955       5.28000000        0      174
S        6.36787024      20.26859405       5.28000000        0      175
S       20.72429111       0.92833255       5.28000000        0      176
S       19.12913324       3.69122705       5.28000000        0      177
S       17.53397536       6.45412155       5.28000000        0      178
S       15.93881749       9.21701605       5.28000000        0      179
S       14.34365961      11.97991055       5.28000000        0      180
S       12.74850174      14.74280505       5.28000000        0      181
S       11.15334386      17.50569955       5.28000000        0      182
S        9.55818599      20.26859405       5.28000000        0      183
S       23.91460686       0.92833255       5.28000000        0      184
S       22.31944899       3.69122705       5.28000000        0      185
S       20.72429111       6.45412155       5.28000000        0      186
S       19.12913324       9.21701605       5.28000000        0      187
S       17.53397536      11.97991055       5.28000000        0      188
S       15.93881749      14.74280505       5.28000000        0      189
S       14.34365961      17.50569955       5.28000000        0      190
S       12.74850174      20.26859405       5.28000000        0      191
